 Entering Gaussian System, Link 0=/apps/GAUSSIAN/G09_RevD01/g09/g09
 Input=C24.com
 Output=C24.log
 Initial command:
 /apps/GAUSSIAN/G09_RevD01/g09/l1.exe "/scratch/tmp/3419169/Gau-146784.inp" -scrdir="/scratch/tmp/3419169/"
 Entering Link 1 = /apps/GAUSSIAN/G09_RevD01/g09/l1.exe PID=    146785.
  
 Copyright (c) 1988,1990,1992,1993,1995,1998,2003,2009,2013,
            Gaussian, Inc.  All Rights Reserved.
  
 This is part of the Gaussian(R) 09 program.  It is based on
 the Gaussian(R) 03 system (copyright 2003, Gaussian, Inc.),
 the Gaussian(R) 98 system (copyright 1998, Gaussian, Inc.),
 the Gaussian(R) 94 system (copyright 1995, Gaussian, Inc.),
 the Gaussian 92(TM) system (copyright 1992, Gaussian, Inc.),
 the Gaussian 90(TM) system (copyright 1990, Gaussian, Inc.),
 the Gaussian 88(TM) system (copyright 1988, Gaussian, Inc.),
 the Gaussian 86(TM) system (copyright 1986, Carnegie Mellon
 University), and the Gaussian 82(TM) system (copyright 1983,
 Carnegie Mellon University). Gaussian is a federally registered
 trademark of Gaussian, Inc.
  
 This software contains proprietary and confidential information,
 including trade secrets, belonging to Gaussian, Inc.
  
 This software is provided under written license and may be
 used, copied, transmitted, or stored only in accord with that
 written license.
  
 The following legend is applicable only to US Government
 contracts under FAR:
  
                    RESTRICTED RIGHTS LEGEND
  
 Use, reproduction and disclosure by the US Government is
 subject to restrictions as set forth in subparagraphs (a)
 and (c) of the Commercial Computer Software - Restricted
 Rights clause in FAR 52.227-19.
  
 Gaussian, Inc.
 340 Quinnipiac St., Bldg. 40, Wallingford CT 06492
  
  
 ---------------------------------------------------------------
 Warning -- This program may not be used in any manner that
 competes with the business of Gaussian, Inc. or will provide
 assistance to any competitor of Gaussian, Inc.  The licensee
 of this program is prohibited from giving any competitor of
 Gaussian, Inc. access to this program.  By using this program,
 the user acknowledges that Gaussian, Inc. is engaged in the
 business of creating and licensing software in the field of
 computational chemistry and represents and warrants to the
 licensee that it is not a competitor of Gaussian, Inc. and that
 it will not use this program in any manner prohibited above.
 ---------------------------------------------------------------
  

 Cite this work as:
 Gaussian 09, Revision D.01,
 M. J. Frisch, G. W. Trucks, H. B. Schlegel, G. E. Scuseria, 
 M. A. Robb, J. R. Cheeseman, G. Scalmani, V. Barone, B. Mennucci, 
 G. A. Petersson, H. Nakatsuji, M. Caricato, X. Li, H. P. Hratchian, 
 A. F. Izmaylov, J. Bloino, G. Zheng, J. L. Sonnenberg, M. Hada, 
 M. Ehara, K. Toyota, R. Fukuda, J. Hasegawa, M. Ishida, T. Nakajima, 
 Y. Honda, O. Kitao, H. Nakai, T. Vreven, J. A. Montgomery, Jr., 
 J. E. Peralta, F. Ogliaro, M. Bearpark, J. J. Heyd, E. Brothers, 
 K. N. Kudin, V. N. Staroverov, T. Keith, R. Kobayashi, J. Normand, 
 K. Raghavachari, A. Rendell, J. C. Burant, S. S. Iyengar, J. Tomasi, 
 M. Cossi, N. Rega, J. M. Millam, M. Klene, J. E. Knox, J. B. Cross, 
 V. Bakken, C. Adamo, J. Jaramillo, R. Gomperts, R. E. Stratmann, 
 O. Yazyev, A. J. Austin, R. Cammi, C. Pomelli, J. W. Ochterski, 
 R. L. Martin, K. Morokuma, V. G. Zakrzewski, G. A. Voth, 
 P. Salvador, J. J. Dannenberg, S. Dapprich, A. D. Daniels, 
 O. Farkas, J. B. Foresman, J. V. Ortiz, J. Cioslowski, 
 and D. J. Fox, Gaussian, Inc., Wallingford CT, 2013.
 
 ******************************************
 Gaussian 09:  ES64L-G09RevD.01 24-Apr-2013
                10-Nov-2025 
 ******************************************
 %mem=12GB
 %nprocshared=32
 Will use up to   32 processors via shared memory.
 -----------------------------------
 # opt freq b3lyp/6-31g(d,p) scf=xqc
 -----------------------------------
 1/14=-1,18=20,19=15,26=3,38=1/1,3;
 2/9=110,12=2,17=6,18=5,40=1/2;
 3/5=1,6=6,7=101,11=2,16=1,25=1,30=1,71=1,74=-5/1,2,3;
 4//1;
 5/5=2,8=3,13=1,38=5/2,8;
 6/7=2,8=2,9=2,10=2,28=1/1;
 7//1,2,3,16;
 1/14=-1,18=20,19=15,26=3/3(2);
 2/9=110/2;
 99//99;
 2/9=110/2;
 3/5=1,6=6,7=101,11=2,16=1,25=1,30=1,71=1,74=-5/1,2,3;
 4/5=5,16=3,69=1/1;
 5/5=2,8=3,13=1,38=5/2,8;
 7//1,2,3,16;
 1/14=-1,18=20,19=15,26=3/3(-5);
 2/9=110/2;
 6/7=2,8=2,9=2,10=2,19=2,28=1/1;
 99/9=1/99;
 -------------------
 Title Card Required
 -------------------
 Symbolic Z-matrix:
 Charge =  0 Multiplicity = 1
 C                    -1.03707   0.00307   2.16044 
 C                    -1.49434  -1.23016   1.62869 
 C                    -2.42065  -1.23437   0.53051 
 C                    -2.87724   0.00014  -0.01082 
 C                    -2.42058   1.23606   0.52715 
 C                    -1.49427   1.23486   1.62541 
 C                     1.50193   0.80107  -0.00414 
 C                     1.50229  -0.80128  -0.00209 
 C                     0.5465   -1.41678  -0.92205 
 C                    -0.23138  -0.71177  -1.88919 
 C                    -0.23133   0.70621  -1.89097 
 C                     0.54659   1.41409  -0.92581 
 C                    -0.2452   -1.97997   1.1889 
 C                     0.89471  -1.15023   1.34518 
 C                    -0.39944  -2.25673  -0.17832 
 C                    -1.75601  -1.98564  -0.59917 
 C                     0.49512   0.0029    2.04386 
 C                     0.89475   1.15415   1.34223 
 C                    -0.39941   2.25626  -0.18437 
 C                    -0.24501   1.98363   1.18376 
 C                    -1.7558    1.98415  -0.60437 
 C                    -1.70205   1.15729  -1.74083 
 C                    -1.7025   -1.16257  -1.73809 
 C                    -2.47568  -0.00212  -1.48777 
 

 GradGradGradGradGradGradGradGradGradGradGradGradGradGradGradGradGradGrad
 Berny optimization.
 Initialization pass.
                           ----------------------------
                           !    Initial Parameters    !
                           ! (Angstroms and Degrees)  !
 --------------------------                            --------------------------
 ! Name  Definition              Value          Derivative Info.                !
 --------------------------------------------------------------------------------
 ! R1    R(1,2)                  1.4187         estimate D2E/DX2                !
 ! R2    R(1,6)                  1.4187         estimate D2E/DX2                !
 ! R3    R(1,17)                 1.5366         estimate D2E/DX2                !
 ! R4    R(2,3)                  1.4367         estimate D2E/DX2                !
 ! R5    R(2,13)                 1.5218         estimate D2E/DX2                !
 ! R6    R(3,4)                  1.4232         estimate D2E/DX2                !
 ! R7    R(3,16)                 1.5107         estimate D2E/DX2                !
 ! R8    R(4,5)                  1.4232         estimate D2E/DX2                !
 ! R9    R(4,24)                 1.5306         estimate D2E/DX2                !
 ! R10   R(5,6)                  1.4367         estimate D2E/DX2                !
 ! R11   R(5,21)                 1.5106         estimate D2E/DX2                !
 ! R12   R(6,20)                 1.522          estimate D2E/DX2                !
 ! R13   R(7,8)                  1.6024         estimate D2E/DX2                !
 ! R14   R(7,12)                 1.4622         estimate D2E/DX2                !
 ! R15   R(7,18)                 1.5186         estimate D2E/DX2                !
 ! R16   R(8,9)                  1.4624         estimate D2E/DX2                !
 ! R17   R(8,14)                 1.5186         estimate D2E/DX2                !
 ! R18   R(9,10)                 1.4274         estimate D2E/DX2                !
 ! R19   R(9,15)                 1.4675         estimate D2E/DX2                !
 ! R20   R(10,11)                1.418          estimate D2E/DX2                !
 ! R21   R(10,23)                1.546          estimate D2E/DX2                !
 ! R22   R(11,12)                1.4275         estimate D2E/DX2                !
 ! R23   R(11,22)                1.5457         estimate D2E/DX2                !
 ! R24   R(12,19)                1.4676         estimate D2E/DX2                !
 ! R25   R(13,14)                1.4186         estimate D2E/DX2                !
 ! R26   R(13,15)                1.4034         estimate D2E/DX2                !
 ! R27   R(14,17)                1.4063         estimate D2E/DX2                !
 ! R28   R(15,16)                1.446          estimate D2E/DX2                !
 ! R29   R(16,23)                1.4062         estimate D2E/DX2                !
 ! R30   R(17,18)                1.4062         estimate D2E/DX2                !
 ! R31   R(18,20)                1.4185         estimate D2E/DX2                !
 ! R32   R(19,20)                1.4035         estimate D2E/DX2                !
 ! R33   R(19,21)                1.4458         estimate D2E/DX2                !
 ! R34   R(21,22)                1.4065         estimate D2E/DX2                !
 ! R35   R(22,24)                1.4166         estimate D2E/DX2                !
 ! R36   R(23,24)                1.4167         estimate D2E/DX2                !
 ! A1    A(2,1,6)              120.6327         estimate D2E/DX2                !
 ! A2    A(2,1,17)             107.0291         estimate D2E/DX2                !
 ! A3    A(6,1,17)             107.0275         estimate D2E/DX2                !
 ! A4    A(1,2,3)              119.7928         estimate D2E/DX2                !
 ! A5    A(1,2,13)             105.7859         estimate D2E/DX2                !
 ! A6    A(3,2,13)             107.8713         estimate D2E/DX2                !
 ! A7    A(2,3,4)              119.6731         estimate D2E/DX2                !
 ! A8    A(2,3,16)             106.821          estimate D2E/DX2                !
 ! A9    A(4,3,16)             106.7423         estimate D2E/DX2                !
 ! A10   A(3,4,5)              120.435          estimate D2E/DX2                !
 ! A11   A(3,4,24)             106.3552         estimate D2E/DX2                !
 ! A12   A(5,4,24)             106.3715         estimate D2E/DX2                !
 ! A13   A(4,5,6)              119.6764         estimate D2E/DX2                !
 ! A14   A(4,5,21)             106.7457         estimate D2E/DX2                !
 ! A15   A(6,5,21)             106.814          estimate D2E/DX2                !
 ! A16   A(1,6,5)              119.788          estimate D2E/DX2                !
 ! A17   A(1,6,20)             105.7882         estimate D2E/DX2                !
 ! A18   A(5,6,20)             107.8773         estimate D2E/DX2                !
 ! A19   A(8,7,12)             114.8476         estimate D2E/DX2                !
 ! A20   A(8,7,18)             103.383          estimate D2E/DX2                !
 ! A21   A(12,7,18)            101.5453         estimate D2E/DX2                !
 ! A22   A(7,8,9)              114.83           estimate D2E/DX2                !
 ! A23   A(7,8,14)             103.3464         estimate D2E/DX2                !
 ! A24   A(9,8,14)             101.5313         estimate D2E/DX2                !
 ! A25   A(8,9,10)             125.0653         estimate D2E/DX2                !
 ! A26   A(8,9,15)             110.0828         estimate D2E/DX2                !
 ! A27   A(10,9,15)            105.9504         estimate D2E/DX2                !
 ! A28   A(9,10,11)            119.6527         estimate D2E/DX2                !
 ! A29   A(9,10,23)            107.9579         estimate D2E/DX2                !
 ! A30   A(11,10,23)           106.9622         estimate D2E/DX2                !
 ! A31   A(10,11,12)           119.6734         estimate D2E/DX2                !
 ! A32   A(10,11,22)           106.9586         estimate D2E/DX2                !
 ! A33   A(12,11,22)           107.9467         estimate D2E/DX2                !
 ! A34   A(7,12,11)            125.0529         estimate D2E/DX2                !
 ! A35   A(7,12,19)            110.0773         estimate D2E/DX2                !
 ! A36   A(11,12,19)           105.9542         estimate D2E/DX2                !
 ! A37   A(2,13,14)            109.8496         estimate D2E/DX2                !
 ! A38   A(2,13,15)            106.7667         estimate D2E/DX2                !
 ! A39   A(14,13,15)           108.1185         estimate D2E/DX2                !
 ! A40   A(8,14,13)            110.9881         estimate D2E/DX2                !
 ! A41   A(8,14,17)            111.4728         estimate D2E/DX2                !
 ! A42   A(13,14,17)           107.8203         estimate D2E/DX2                !
 ! A43   A(9,15,13)            108.06           estimate D2E/DX2                !
 ! A44   A(9,15,16)            110.4834         estimate D2E/DX2                !
 ! A45   A(13,15,16)           110.4672         estimate D2E/DX2                !
 ! A46   A(3,16,15)            106.7581         estimate D2E/DX2                !
 ! A47   A(3,16,23)            109.3482         estimate D2E/DX2                !
 ! A48   A(15,16,23)           108.0445         estimate D2E/DX2                !
 ! A49   A(1,17,14)            108.7308         estimate D2E/DX2                !
 ! A50   A(1,17,18)            108.7319         estimate D2E/DX2                !
 ! A51   A(14,17,18)           110.0398         estimate D2E/DX2                !
 ! A52   A(7,18,17)            111.4483         estimate D2E/DX2                !
 ! A53   A(7,18,20)            110.9884         estimate D2E/DX2                !
 ! A54   A(17,18,20)           107.8259         estimate D2E/DX2                !
 ! A55   A(12,19,20)           108.064          estimate D2E/DX2                !
 ! A56   A(12,19,21)           110.4852         estimate D2E/DX2                !
 ! A57   A(20,19,21)           110.4761         estimate D2E/DX2                !
 ! A58   A(6,20,18)            109.8416         estimate D2E/DX2                !
 ! A59   A(6,20,19)            106.7463         estimate D2E/DX2                !
 ! A60   A(18,20,19)           108.1113         estimate D2E/DX2                !
 ! A61   A(5,21,19)            106.7668         estimate D2E/DX2                !
 ! A62   A(5,21,22)            109.3254         estimate D2E/DX2                !
 ! A63   A(19,21,22)           108.0313         estimate D2E/DX2                !
 ! A64   A(11,22,21)           106.644          estimate D2E/DX2                !
 ! A65   A(11,22,24)           107.3458         estimate D2E/DX2                !
 ! A66   A(21,22,24)           108.4179         estimate D2E/DX2                !
 ! A67   A(10,23,16)           106.6203         estimate D2E/DX2                !
 ! A68   A(10,23,24)           107.3217         estimate D2E/DX2                !
 ! A69   A(16,23,24)           108.3943         estimate D2E/DX2                !
 ! A70   A(4,24,22)            108.3276         estimate D2E/DX2                !
 ! A71   A(4,24,23)            108.3543         estimate D2E/DX2                !
 ! A72   A(22,24,23)           109.9246         estimate D2E/DX2                !
 ! D1    D(6,1,2,3)              0.5263         estimate D2E/DX2                !
 ! D2    D(6,1,2,13)           122.487          estimate D2E/DX2                !
 ! D3    D(17,1,2,3)          -121.9738         estimate D2E/DX2                !
 ! D4    D(17,1,2,13)           -0.0131         estimate D2E/DX2                !
 ! D5    D(2,1,6,5)             -0.5283         estimate D2E/DX2                !
 ! D6    D(2,1,6,20)          -122.4957         estimate D2E/DX2                !
 ! D7    D(17,1,6,5)           121.9725         estimate D2E/DX2                !
 ! D8    D(17,1,6,20)            0.0052         estimate D2E/DX2                !
 ! D9    D(2,1,17,14)            5.4129         estimate D2E/DX2                !
 ! D10   D(2,1,17,18)          125.2184         estimate D2E/DX2                !
 ! D11   D(6,1,17,14)         -125.2139         estimate D2E/DX2                !
 ! D12   D(6,1,17,18)           -5.4084         estimate D2E/DX2                !
 ! D13   D(1,2,3,4)             -0.3101         estimate D2E/DX2                !
 ! D14   D(1,2,3,16)           120.9294         estimate D2E/DX2                !
 ! D15   D(13,2,3,4)          -121.2392         estimate D2E/DX2                !
 ! D16   D(13,2,3,16)            0.0003         estimate D2E/DX2                !
 ! D17   D(1,2,13,14)           -5.3802         estimate D2E/DX2                !
 ! D18   D(1,2,13,15)         -122.3854         estimate D2E/DX2                !
 ! D19   D(3,2,13,14)          123.9412         estimate D2E/DX2                !
 ! D20   D(3,2,13,15)            6.936          estimate D2E/DX2                !
 ! D21   D(2,3,4,5)              0.1018         estimate D2E/DX2                !
 ! D22   D(2,3,4,24)           120.9732         estimate D2E/DX2                !
 ! D23   D(16,3,4,5)          -121.1768         estimate D2E/DX2                !
 ! D24   D(16,3,4,24)           -0.3054         estimate D2E/DX2                !
 ! D25   D(2,3,16,15)           -6.7312         estimate D2E/DX2                !
 ! D26   D(2,3,16,23)         -123.3847         estimate D2E/DX2                !
 ! D27   D(4,3,16,15)          122.3939         estimate D2E/DX2                !
 ! D28   D(4,3,16,23)            5.7404         estimate D2E/DX2                !
 ! D29   D(3,4,5,6)             -0.1038         estimate D2E/DX2                !
 ! D30   D(3,4,5,21)           121.1705         estimate D2E/DX2                !
 ! D31   D(24,4,5,6)          -120.9673         estimate D2E/DX2                !
 ! D32   D(24,4,5,21)            0.3071         estimate D2E/DX2                !
 ! D33   D(3,4,24,22)         -124.3634         estimate D2E/DX2                !
 ! D34   D(3,4,24,23)           -5.1453         estimate D2E/DX2                !
 ! D35   D(5,4,24,22)            5.1638         estimate D2E/DX2                !
 ! D36   D(5,4,24,23)          124.382          estimate D2E/DX2                !
 ! D37   D(4,5,6,1)              0.3142         estimate D2E/DX2                !
 ! D38   D(4,5,6,20)           121.2481         estimate D2E/DX2                !
 ! D39   D(21,5,6,1)          -120.9262         estimate D2E/DX2                !
 ! D40   D(21,5,6,20)            0.0077         estimate D2E/DX2                !
 ! D41   D(4,5,21,19)         -122.3917         estimate D2E/DX2                !
 ! D42   D(4,5,21,22)           -5.7607         estimate D2E/DX2                !
 ! D43   D(6,5,21,19)            6.7352         estimate D2E/DX2                !
 ! D44   D(6,5,21,22)          123.3662         estimate D2E/DX2                !
 ! D45   D(1,6,20,18)            5.3889         estimate D2E/DX2                !
 ! D46   D(1,6,20,19)          122.3699         estimate D2E/DX2                !
 ! D47   D(5,6,20,18)         -123.9319         estimate D2E/DX2                !
 ! D48   D(5,6,20,19)           -6.9509         estimate D2E/DX2                !
 ! D49   D(12,7,8,9)            -0.0256         estimate D2E/DX2                !
 ! D50   D(12,7,8,14)         -109.6682         estimate D2E/DX2                !
 ! D51   D(18,7,8,9)           109.662          estimate D2E/DX2                !
 ! D52   D(18,7,8,14)            0.0194         estimate D2E/DX2                !
 ! D53   D(8,7,12,11)           -7.6455         estimate D2E/DX2                !
 ! D54   D(8,7,12,19)          120.2283         estimate D2E/DX2                !
 ! D55   D(18,7,12,11)        -118.4349         estimate D2E/DX2                !
 ! D56   D(18,7,12,19)           9.4389         estimate D2E/DX2                !
 ! D57   D(8,7,18,17)           -3.3655         estimate D2E/DX2                !
 ! D58   D(8,7,18,20)         -123.5636         estimate D2E/DX2                !
 ! D59   D(12,7,18,17)         115.9394         estimate D2E/DX2                !
 ! D60   D(12,7,18,20)          -4.2587         estimate D2E/DX2                !
 ! D61   D(7,8,9,10)             7.6922         estimate D2E/DX2                !
 ! D62   D(7,8,9,15)          -120.1945         estimate D2E/DX2                !
 ! D63   D(14,8,9,10)          118.4238         estimate D2E/DX2                !
 ! D64   D(14,8,9,15)           -9.4628         estimate D2E/DX2                !
 ! D65   D(7,8,14,13)          123.5394         estimate D2E/DX2                !
 ! D66   D(7,8,14,17)            3.3321         estimate D2E/DX2                !
 ! D67   D(9,8,14,13)            4.2726         estimate D2E/DX2                !
 ! D68   D(9,8,14,17)         -115.9347         estimate D2E/DX2                !
 ! D69   D(8,9,10,11)           -8.0238         estimate D2E/DX2                !
 ! D70   D(8,9,10,23)         -130.5313         estimate D2E/DX2                !
 ! D71   D(15,9,10,11)         121.5396         estimate D2E/DX2                !
 ! D72   D(15,9,10,23)          -0.9679         estimate D2E/DX2                !
 ! D73   D(8,9,15,13)           11.7864         estimate D2E/DX2                !
 ! D74   D(8,9,15,16)          132.7452         estimate D2E/DX2                !
 ! D75   D(10,9,15,13)        -126.0039         estimate D2E/DX2                !
 ! D76   D(10,9,15,16)          -5.0451         estimate D2E/DX2                !
 ! D77   D(9,10,11,12)           0.0051         estimate D2E/DX2                !
 ! D78   D(9,10,11,22)        -122.986          estimate D2E/DX2                !
 ! D79   D(23,10,11,12)        122.9994         estimate D2E/DX2                !
 ! D80   D(23,10,11,22)          0.0084         estimate D2E/DX2                !
 ! D81   D(9,10,23,16)           6.7089         estimate D2E/DX2                !
 ! D82   D(9,10,23,24)         122.6886         estimate D2E/DX2                !
 ! D83   D(11,10,23,16)       -123.2761         estimate D2E/DX2                !
 ! D84   D(11,10,23,24)         -7.2964         estimate D2E/DX2                !
 ! D85   D(10,11,12,7)           7.9986         estimate D2E/DX2                !
 ! D86   D(10,11,12,19)       -121.5489         estimate D2E/DX2                !
 ! D87   D(22,11,12,7)         130.5067         estimate D2E/DX2                !
 ! D88   D(22,11,12,19)          0.9592         estimate D2E/DX2                !
 ! D89   D(10,11,22,21)        123.3142         estimate D2E/DX2                !
 ! D90   D(10,11,22,24)          7.2838         estimate D2E/DX2                !
 ! D91   D(12,11,22,21)         -6.6867         estimate D2E/DX2                !
 ! D92   D(12,11,22,24)       -122.7171         estimate D2E/DX2                !
 ! D93   D(7,12,19,20)         -11.7603         estimate D2E/DX2                !
 ! D94   D(7,12,19,21)        -132.7336         estimate D2E/DX2                !
 ! D95   D(11,12,19,20)        126.012          estimate D2E/DX2                !
 ! D96   D(11,12,19,21)          5.0386         estimate D2E/DX2                !
 ! D97   D(2,13,14,8)         -113.4844         estimate D2E/DX2                !
 ! D98   D(2,13,14,17)           8.8696         estimate D2E/DX2                !
 ! D99   D(15,13,14,8)           2.6718         estimate D2E/DX2                !
 ! D100  D(15,13,14,17)        125.0259         estimate D2E/DX2                !
 ! D101  D(2,13,15,9)          109.5171         estimate D2E/DX2                !
 ! D102  D(2,13,15,16)         -11.4518         estimate D2E/DX2                !
 ! D103  D(14,13,15,9)          -8.6285         estimate D2E/DX2                !
 ! D104  D(14,13,15,16)       -129.5974         estimate D2E/DX2                !
 ! D105  D(8,14,17,1)          113.3056         estimate D2E/DX2                !
 ! D106  D(8,14,17,18)          -5.683          estimate D2E/DX2                !
 ! D107  D(13,14,17,1)          -8.7495         estimate D2E/DX2                !
 ! D108  D(13,14,17,18)       -127.7381         estimate D2E/DX2                !
 ! D109  D(9,15,16,3)         -107.9901         estimate D2E/DX2                !
 ! D110  D(9,15,16,23)           9.5262         estimate D2E/DX2                !
 ! D111  D(13,15,16,3)          11.5254         estimate D2E/DX2                !
 ! D112  D(13,15,16,23)        129.0416         estimate D2E/DX2                !
 ! D113  D(3,16,23,10)         106.1805         estimate D2E/DX2                !
 ! D114  D(3,16,23,24)          -9.0787         estimate D2E/DX2                !
 ! D115  D(15,16,23,10)         -9.6553         estimate D2E/DX2                !
 ! D116  D(15,16,23,24)       -124.9144         estimate D2E/DX2                !
 ! D117  D(1,17,18,7)         -113.2924         estimate D2E/DX2                !
 ! D118  D(1,17,18,20)           8.7514         estimate D2E/DX2                !
 ! D119  D(14,17,18,7)           5.6955         estimate D2E/DX2                !
 ! D120  D(14,17,18,20)        127.7393         estimate D2E/DX2                !
 ! D121  D(7,18,20,6)          113.4518         estimate D2E/DX2                !
 ! D122  D(7,18,20,19)          -2.6717         estimate D2E/DX2                !
 ! D123  D(17,18,20,6)          -8.8757         estimate D2E/DX2                !
 ! D124  D(17,18,20,19)       -124.9992         estimate D2E/DX2                !
 ! D125  D(12,19,20,6)        -109.509          estimate D2E/DX2                !
 ! D126  D(12,19,20,18)          8.6125         estimate D2E/DX2                !
 ! D127  D(21,19,20,6)          11.47           estimate D2E/DX2                !
 ! D128  D(21,19,20,18)        129.5915         estimate D2E/DX2                !
 ! D129  D(12,19,21,5)         107.9854         estimate D2E/DX2                !
 ! D130  D(12,19,21,22)         -9.502          estimate D2E/DX2                !
 ! D131  D(20,19,21,5)         -11.5418         estimate D2E/DX2                !
 ! D132  D(20,19,21,22)       -129.0293         estimate D2E/DX2                !
 ! D133  D(5,21,22,11)        -106.1967         estimate D2E/DX2                !
 ! D134  D(5,21,22,24)           9.114          estimate D2E/DX2                !
 ! D135  D(19,21,22,11)          9.63           estimate D2E/DX2                !
 ! D136  D(19,21,22,24)        124.9407         estimate D2E/DX2                !
 ! D137  D(11,22,24,4)         106.0195         estimate D2E/DX2                !
 ! D138  D(11,22,24,23)        -12.204          estimate D2E/DX2                !
 ! D139  D(21,22,24,4)          -8.8329         estimate D2E/DX2                !
 ! D140  D(21,22,24,23)       -127.0564         estimate D2E/DX2                !
 ! D141  D(10,23,24,4)        -106.0009         estimate D2E/DX2                !
 ! D142  D(10,23,24,22)         12.2061         estimate D2E/DX2                !
 ! D143  D(16,23,24,4)           8.7997         estimate D2E/DX2                !
 ! D144  D(16,23,24,22)        127.0068         estimate D2E/DX2                !
 --------------------------------------------------------------------------------
 Trust Radius=3.00D-01 FncErr=1.00D-07 GrdErr=1.00D-06
 Number of steps in this run=    144 maximum allowed number of steps=    144.
 GradGradGradGradGradGradGradGradGradGradGradGradGradGradGradGradGradGrad

                          Input orientation:                          
 ---------------------------------------------------------------------
 Center     Atomic      Atomic             Coordinates (Angstroms)
 Number     Number       Type             X           Y           Z
 ---------------------------------------------------------------------
      1          6           0       -1.037070    0.003069    2.160442
      2          6           0       -1.494344   -1.230159    1.628692
      3          6           0       -2.420652   -1.234365    0.530513
      4          6           0       -2.877235    0.000135   -0.010819
      5          6           0       -2.420580    1.236058    0.527152
      6          6           0       -1.494269    1.234861    1.625411
      7          6           0        1.501931    0.801074   -0.004144
      8          6           0        1.502285   -0.801280   -0.002092
      9          6           0        0.546503   -1.416782   -0.922048
     10          6           0       -0.231378   -0.711772   -1.889187
     11          6           0       -0.231325    0.706209   -1.890972
     12          6           0        0.546592    1.414094   -0.925807
     13          6           0       -0.245196   -1.979974    1.188896
     14          6           0        0.894714   -1.150232    1.345176
     15          6           0       -0.399441   -2.256726   -0.178321
     16          6           0       -1.756012   -1.985635   -0.599171
     17          6           0        0.495118    0.002898    2.043864
     18          6           0        0.894753    1.154151    1.342225
     19          6           0       -0.399406    2.256265   -0.184369
     20          6           0       -0.245011    1.983630    1.183761
     21          6           0       -1.755798    1.984147   -0.604372
     22          6           0       -1.702051    1.157292   -1.740831
     23          6           0       -1.702502   -1.162571   -1.738090
     24          6           0       -2.475683   -0.002124   -1.487767
 ---------------------------------------------------------------------
                    Distance matrix (angstroms):
                    1          2          3          4          5
     1  C    0.000000
     2  C    1.418700   0.000000
     3  C    2.470265   1.436684   0.000000
     4  C    2.846154   2.472652   1.423200   0.000000
     5  C    2.470222   2.855439   2.470425   1.423184   0.000000
     6  C    1.418662   2.465022   2.855532   2.472730   1.436742
     7  C    3.430564   3.971111   4.451464   4.451813   3.982158
     8  C    3.431014   3.438485   3.982545   4.452251   4.451934
     9  C    3.745053   3.272027   3.308658   3.815753   4.235720
    10  C    4.190421   3.773497   3.304689   3.321993   3.798071
    11  C    4.190177   4.211030   3.797706   3.321800   3.304679
    12  C    3.744851   4.205111   4.235533   3.815636   3.308609
    13  C    2.345938   1.521846   2.392072   3.505393   3.938663
    14  C    2.393021   2.407149   3.415026   4.170092   4.165899
    15  C    3.314069   2.349031   2.373386   3.355733   4.096613
    16  C    3.476677   2.366979   1.510741   2.355118   3.477004
    17  C    1.536617   2.377132   3.510380   3.948987   3.510327
    18  C    2.392992   3.387445   4.166029   4.170177   3.415038
    19  C    3.313857   4.079367   4.096461   3.355574   2.373232
    20  C    2.346036   3.476670   3.938990   3.505692   2.392300
    21  C    3.476411   3.922588   3.476897   2.355043   1.510602
    22  C    4.122422   4.134822   3.375709   2.390191   2.380385
    23  C    4.123114   3.373888   2.380641   2.390679   3.376445
    24  C    3.921615   3.490475   2.365354   1.530563   2.365593
                    6          7          8          9         10
     6  C    0.000000
     7  C    3.438144   0.000000
     8  C    3.971646   1.602355   0.000000
     9  C    4.205414   2.583462   1.462423   0.000000
    10  C    4.211493   2.974298   2.564123   1.427409   0.000000
    11  C    3.773520   2.563844   2.974188   2.459862   1.417982
    12  C    3.271995   1.462166   2.583502   2.830878   2.460212
    13  C    3.476477   3.494285   2.421046   2.323802   3.329132
    14  C    3.387394   2.448872   1.518565   2.309243   3.452743
    15  C    4.079617   3.604954   2.401237   1.467462   2.311318
    16  C    3.922865   4.328279   3.517911   2.393620   2.368835
    17  C    2.377077   2.417663   2.418062   3.288581   4.062935
    18  C    2.407101   1.518564   2.449488   3.443531   3.897674
    19  C    2.348892   2.401071   3.605307   3.863960   3.426935
    20  C    1.521958   2.421025   3.494998   4.077221   4.087589
    21  C    2.366804   3.517490   4.328562   4.119202   3.352996
    22  C    3.373541   3.661758   4.138476   3.514578   2.382916
    23  C    4.135720   4.138944   3.662633   2.405945   1.546045
    24  C    3.490728   4.320611   4.320892   3.384509   2.387811
                   11         12         13         14         15
    11  C    0.000000
    12  C    1.427515   0.000000
    13  C    4.086730   4.076591   0.000000
    14  C    3.897049   3.443010   1.418552   0.000000
    15  C    3.426430   3.863759   1.403448   2.284778   0.000000
    16  C    3.352528   4.119082   2.340893   3.391863   1.445991
    17  C    4.062672   3.288323   2.282721   1.406254   3.293060
    18  C    3.452864   2.309276   3.338523   2.304385   3.952351
    19  C    2.311584   1.467615   4.455935   3.952022   4.512995
    20  C    3.329561   2.324066   3.963607   3.338580   4.456426
    21  C    2.369068   2.393592   4.605647   4.544258   4.472832
    22  C    1.545656   2.405537   4.533008   4.646643   3.974135
    23  C    2.383290   3.515314   3.370332   4.031403   2.308251
    24  C    2.387772   3.384615   4.006431   4.550087   3.332966
                   16         17         18         19         20
    16  C    0.000000
    17  C    4.000935   0.000000
    18  C    4.544648   1.406197   0.000000
    19  C    4.472824   3.292850   2.284730   0.000000
    20  C    4.606195   2.282732   1.418523   1.403548   0.000000
    21  C    3.969785   4.000640   3.391689   1.445770   2.340918
    22  C    3.344292   4.525936   4.030960   2.308073   3.370317
    23  C    1.406213   4.526702   4.647717   3.974990   4.534322
    24  C    2.289508   4.614987   4.550348   3.333181   4.007016
                   21         22         23         24
    21  C    0.000000
    22  C    1.406455   0.000000
    23  C    3.345144   2.319865   0.000000
    24  C    2.289955   1.416613   1.416724   0.000000
 Stoichiometry    C24
 Framework group  C1[X(C24)]
 Deg. of freedom    66
 Full point group                 C1      NOp   1
 Largest Abelian subgroup         C1      NOp   1
 Largest concise Abelian subgroup C1      NOp   1
                         Standard orientation:                         
 ---------------------------------------------------------------------
 Center     Atomic      Atomic             Coordinates (Angstroms)
 Number     Number       Type             X           Y           Z
 ---------------------------------------------------------------------
      1          6           0        1.177691   -0.002777    1.776022
      2          6           0        0.475765   -1.233193    1.698018
      3          6           0       -0.950605   -1.231657    1.526181
      4          6           0       -1.648808    0.005663    1.442223
      5          6           0       -0.943083    1.238756    1.525201
      6          6           0        0.483322    1.231817    1.697091
      7          6           0        1.562483    0.795764   -1.538045
      8          6           0        1.557810   -0.806584   -1.537776
      9          6           0        0.228972   -1.416828   -1.559517
     10          6           0       -0.996674   -0.706860   -1.736247
     11          6           0       -0.992250    0.711115   -1.736712
     12          6           0        0.237659    1.414037   -1.560576
     13          6           0        1.086773   -1.984702    0.524171
     14          6           0        2.030500   -1.158272   -0.138161
     15          6           0        0.040705   -2.256770   -0.371031
     16          6           0       -1.237549   -1.981008    0.246151
     17          6           0        2.219081   -0.006363    0.646117
     18          6           0        2.037621    1.146101   -0.138922
     19          6           0        0.054437    2.256204   -0.372687
     20          6           0        1.099067    1.978886    0.522740
     21          6           0       -1.225254    1.988758    0.244656
     22          6           0       -1.964014    1.165352   -0.623879
     23          6           0       -1.971640   -1.154499   -0.623002
     24          6           0       -2.362011    0.007059    0.087983
 ---------------------------------------------------------------------
 Rotational constants (GHZ):      0.5461132      0.5349250      0.4736654
 Standard basis: 6-31G(d,p) (6D, 7F)
 There are   360 symmetry adapted cartesian basis functions of A   symmetry.
 There are   360 symmetry adapted basis functions of A   symmetry.
   360 basis functions,   672 primitive gaussians,   360 cartesian basis functions
    72 alpha electrons       72 beta electrons
       nuclear repulsion energy      1901.4989718914 Hartrees.
 NAtoms=   24 NActive=   24 NUniq=   24 SFac= 1.00D+00 NAtFMM=   60 NAOKFM=F Big=F
 Integral buffers will be    131072 words long.
 Raffenetti 2 integral format.
 Two-electron integral symmetry is turned on.
 One-electron integrals computed using PRISM.
 NBasis=   360 RedAO= T EigKep=  5.56D-04  NBF=   360
 NBsUse=   360 1.00D-06 EigRej= -1.00D+00 NBFU=   360
 ExpMin= 1.69D-01 ExpMax= 3.05D+03 ExpMxC= 4.57D+02 IAcc=1 IRadAn=         1 AccDes= 0.00D+00
 Harris functional with IExCor=  402 and IRadAn=       1 diagonalized for initial guess.
 HarFok:  IExCor=  402 AccDes= 0.00D+00 IRadAn=         1 IDoV= 1 UseB2=F ITyADJ=14
 ICtDFT=  3500011 ScaDFX=  1.000000  1.000000  1.000000  1.000000
 FoFCou: FMM=F IPFlag=           0 FMFlag=      100000 FMFlg1=           0
         NFxFlg=           0 DoJE=T BraDBF=F KetDBF=T FulRan=T
         wScrn=  0.000000 ICntrl=     500 IOpCl=  0 I1Cent=   200000004 NGrid=           0
         NMat0=    1 NMatS0=      1 NMatT0=    0 NMatD0=    1 NMtDS0=    0 NMtDT0=    0
 Petite list used in FoFCou.
 Requested convergence on RMS density matrix=1.00D-08 within  64 cycles.
 Requested convergence on MAX density matrix=1.00D-06.
 Requested convergence on             energy=1.00D-06.
 No special actions if energy rises.
 Integral accuracy reduced to 1.0D-05 until final iterations.
 Problem detected with inexpensive integrals.
 Switching to full accuracy and repeating last cycle.
 EnCoef did     3 forward-backward iterations
 EnCoef did     2 forward-backward iterations
 EnCoef did     3 forward-backward iterations
 Restarting incremental Fock formation.
 SCF Done:  E(RB3LYP) =  -913.793995045     A.U. after   31 cycles
            NFock= 31  Conv=0.97D-08     -V/T= 2.0093
 QCSCF skips out because SCF is already converged.

 **********************************************************************

            Population analysis using the SCF density.

 **********************************************************************

 Orbital symmetries:
       Occupied  (A) (A) (A) (A) (A) (A) (A) (A) (A) (A) (A) (A)
                 (A) (A) (A) (A) (A) (A) (A) (A) (A) (A) (A) (A)
                 (A) (A) (A) (A) (A) (A) (A) (A) (A) (A) (A) (A)
                 (A) (A) (A) (A) (A) (A) (A) (A) (A) (A) (A) (A)
                 (A) (A) (A) (A) (A) (A) (A) (A) (A) (A) (A) (A)
                 (A) (A) (A) (A) (A) (A) (A) (A) (A) (A) (A) (A)
       Virtual   (A) (A) (A) (A) (A) (A) (A) (A) (A) (A) (A) (A)
                 (A) (A) (A) (A) (A) (A) (A) (A) (A) (A) (A) (A)
                 (A) (A) (A) (A) (A) (A) (A) (A) (A) (A) (A) (A)
                 (A) (A) (A) (A) (A) (A) (A) (A) (A) (A) (A) (A)
                 (A) (A) (A) (A) (A) (A) (A) (A) (A) (A) (A) (A)
                 (A) (A) (A) (A) (A) (A) (A) (A) (A) (A) (A) (A)
                 (A) (A) (A) (A) (A) (A) (A) (A) (A) (A) (A) (A)
                 (A) (A) (A) (A) (A) (A) (A) (A) (A) (A) (A) (A)
                 (A) (A) (A) (A) (A) (A) (A) (A) (A) (A) (A) (A)
                 (A) (A) (A) (A) (A) (A) (A) (A) (A) (A) (A) (A)
                 (A) (A) (A) (A) (A) (A) (A) (A) (A) (A) (A) (A)
                 (A) (A) (A) (A) (A) (A) (A) (A) (A) (A) (A) (A)
                 (A) (A) (A) (A) (A) (A) (A) (A) (A) (A) (A) (A)
                 (A) (A) (A) (A) (A) (A) (A) (A) (A) (A) (A) (A)
                 (A) (A) (A) (A) (A) (A) (A) (A) (A) (A) (A) (A)
                 (A) (A) (A) (A) (A) (A) (A) (A) (A) (A) (A) (A)
                 (A) (A) (A) (A) (A) (A) (A) (A) (A) (A) (A) (A)
                 (A) (A) (A) (A) (A) (A) (A) (A) (A) (A) (A) (A)
                 (A) (A) (A) (A) (A) (A) (A) (A) (A) (A) (A) (A)
                 (A) (A) (A) (A) (A) (A) (A) (A) (A) (A) (A) (A)
                 (A) (A) (A) (A) (A) (A) (A) (A) (A) (A) (A) (A)
                 (A) (A) (A) (A) (A) (A) (A) (A) (A) (A) (A) (A)
                 (A) (A) (A) (A) (A) (A) (A) (A) (A) (A) (A) (A)
                 (A) (A) (A) (A) (A) (A) (A) (A) (A) (A) (A) (A)
 The electronic state is 1-A.
 Alpha  occ. eigenvalues --  -10.25687 -10.25579 -10.25573 -10.25448 -10.25227
 Alpha  occ. eigenvalues --  -10.25194 -10.25189 -10.25061 -10.24999 -10.24923
 Alpha  occ. eigenvalues --  -10.24881 -10.24822 -10.24735 -10.24648 -10.24620
 Alpha  occ. eigenvalues --  -10.24600 -10.24552 -10.24417 -10.24138 -10.24025
 Alpha  occ. eigenvalues --  -10.24007 -10.23969 -10.23925 -10.23202  -0.99847
 Alpha  occ. eigenvalues --   -0.94845  -0.94357  -0.90464  -0.84618  -0.84187
 Alpha  occ. eigenvalues --   -0.81896  -0.81428  -0.78849  -0.71710  -0.71287
 Alpha  occ. eigenvalues --   -0.69485  -0.69312  -0.68093  -0.67416  -0.59784
 Alpha  occ. eigenvalues --   -0.57420  -0.57115  -0.56456  -0.55297  -0.52319
 Alpha  occ. eigenvalues --   -0.51277  -0.50344  -0.49838  -0.48567  -0.44561
 Alpha  occ. eigenvalues --   -0.43696  -0.43169  -0.43074  -0.42703  -0.42284
 Alpha  occ. eigenvalues --   -0.42172  -0.39930  -0.38674  -0.37892  -0.37492
 Alpha  occ. eigenvalues --   -0.37320  -0.36943  -0.36706  -0.35662  -0.31678
 Alpha  occ. eigenvalues --   -0.31501  -0.29714  -0.29686  -0.28003  -0.20635
 Alpha  occ. eigenvalues --   -0.20206  -0.19801
 Alpha virt. eigenvalues --   -0.16317  -0.12447  -0.11112  -0.06391  -0.06130
 Alpha virt. eigenvalues --   -0.04515  -0.04440  -0.02434  -0.02320  -0.01815
 Alpha virt. eigenvalues --   -0.00841  -0.00805   0.07624   0.12080   0.12912
 Alpha virt. eigenvalues --    0.14554   0.15344   0.16072   0.16981   0.19087
 Alpha virt. eigenvalues --    0.22062   0.22745   0.24507   0.26467   0.26958
 Alpha virt. eigenvalues --    0.27152   0.27805   0.28912   0.29744   0.31496
 Alpha virt. eigenvalues --    0.33853   0.34328   0.35445   0.37088   0.38920
 Alpha virt. eigenvalues --    0.39081   0.40135   0.41762   0.43980   0.44834
 Alpha virt. eigenvalues --    0.45203   0.45497   0.46313   0.47086   0.47481
 Alpha virt. eigenvalues --    0.47896   0.48815   0.49900   0.50291   0.50510
 Alpha virt. eigenvalues --    0.51081   0.51159   0.51577   0.52144   0.52405
 Alpha virt. eigenvalues --    0.53228   0.53357   0.53622   0.53893   0.54115
 Alpha virt. eigenvalues --    0.54565   0.55513   0.56014   0.56941   0.57265
 Alpha virt. eigenvalues --    0.59234   0.59677   0.60346   0.60601   0.60947
 Alpha virt. eigenvalues --    0.61068   0.61121   0.61739   0.62432   0.62729
 Alpha virt. eigenvalues --    0.63045   0.63282   0.63872   0.64122   0.64695
 Alpha virt. eigenvalues --    0.64988   0.65069   0.65175   0.66332   0.66649
 Alpha virt. eigenvalues --    0.67460   0.71961   0.72028   0.72937   0.74815
 Alpha virt. eigenvalues --    0.75464   0.75666   0.76035   0.76308   0.80104
 Alpha virt. eigenvalues --    0.80166   0.80715   0.81036   0.81134   0.81509
 Alpha virt. eigenvalues --    0.83536   0.83871   0.84133   0.86876   0.87880
 Alpha virt. eigenvalues --    0.88753   0.88888   0.89214   0.89429   0.90246
 Alpha virt. eigenvalues --    0.90873   0.90930   0.91023   0.91760   0.93540
 Alpha virt. eigenvalues --    0.95259   0.98444   0.99158   0.99218   0.99754
 Alpha virt. eigenvalues --    0.99845   1.00960   1.02000   1.02252   1.02453
 Alpha virt. eigenvalues --    1.03039   1.06458   1.06736   1.07716   1.08669
 Alpha virt. eigenvalues --    1.09088   1.10369   1.11633   1.15391   1.45491
 Alpha virt. eigenvalues --    1.47130   1.47612   1.50323   1.50878   1.54799
 Alpha virt. eigenvalues --    1.55793   1.58895   1.59874   1.63711   1.64983
 Alpha virt. eigenvalues --    1.65762   1.66224   1.67767   1.67885   1.68026
 Alpha virt. eigenvalues --    1.68367   1.68968   1.69106   1.70496   1.70646
 Alpha virt. eigenvalues --    1.71620   1.72265   1.73029   1.74044   1.74524
 Alpha virt. eigenvalues --    1.75555   1.75963   1.76515   1.76980   1.77614
 Alpha virt. eigenvalues --    1.77879   1.80325   1.82331   1.82768   1.83302
 Alpha virt. eigenvalues --    1.84283   1.85690   1.86582   1.87416   1.88132
 Alpha virt. eigenvalues --    1.88394   1.88947   1.89738   1.89884   1.90979
 Alpha virt. eigenvalues --    1.92374   1.94754   1.95514   1.95680   1.96979
 Alpha virt. eigenvalues --    1.97642   1.98755   2.00650   2.03535   2.03857
 Alpha virt. eigenvalues --    2.05041   2.06806   2.07468   2.09046   2.11744
 Alpha virt. eigenvalues --    2.18551   2.19473   2.22157   2.25015   2.25853
 Alpha virt. eigenvalues --    2.29585   2.31918   2.33867   2.35234   2.36069
 Alpha virt. eigenvalues --    2.37638   2.38029   2.39701   2.40260   2.40557
 Alpha virt. eigenvalues --    2.41022   2.42000   2.43187   2.45258   2.46076
 Alpha virt. eigenvalues --    2.46426   2.47261   2.47912   2.48880   2.49477
 Alpha virt. eigenvalues --    2.52320   2.53048   2.55659   2.56297   2.57003
 Alpha virt. eigenvalues --    2.57959   2.58093   2.60408   2.60574   2.60690
 Alpha virt. eigenvalues --    2.62072   2.63379   2.63854   2.66179   2.67485
 Alpha virt. eigenvalues --    2.68665   2.68753   2.69585   2.71256   2.72024
 Alpha virt. eigenvalues --    2.72287   2.73660   2.74910   2.75811   2.76301
 Alpha virt. eigenvalues --    2.77061   2.78340   2.79321   2.80523   2.81740
 Alpha virt. eigenvalues --    2.81919   2.85027   2.88570   2.90683   2.91138
 Alpha virt. eigenvalues --    2.94578   2.99308   3.01890   3.02288   3.04533
 Alpha virt. eigenvalues --    3.04721   3.07036   3.20504   3.27812   3.97068
 Alpha virt. eigenvalues --    4.06893   4.09862   4.10722   4.27260   4.27715
 Alpha virt. eigenvalues --    4.27852   4.32446   4.36191   4.61726   4.62026
 Alpha virt. eigenvalues --    4.65985   4.66385   4.75881   4.82693   4.91126
 Alpha virt. eigenvalues --    5.07477   5.10207   5.12289   5.14529   5.15533
 Alpha virt. eigenvalues --    5.18776   5.21710   5.25551
          Condensed to atoms (all electrons):
               1          2          3          4          5          6
     1  C    5.000644   0.517678  -0.060134  -0.042602  -0.062424   0.518334
     2  C    0.517678   4.992654   0.522679  -0.062360  -0.041493  -0.059914
     3  C   -0.060134   0.522679   5.019547   0.516440  -0.071406  -0.042594
     4  C   -0.042602  -0.062360   0.516440   5.009304   0.523869  -0.063292
     5  C   -0.062424  -0.041493  -0.071406   0.523869   5.017323   0.521863
     6  C    0.518334  -0.059914  -0.042594  -0.063292   0.521863   4.997916
     7  C    0.012620   0.000059  -0.001145  -0.000702   0.001484   0.012307
     8  C    0.011752   0.013221   0.001719  -0.000835  -0.001137   0.000269
     9  C    0.000357   0.011061   0.015061   0.000643  -0.001028  -0.000284
    10  C   -0.000827  -0.001153   0.012326   0.014296  -0.000141  -0.000413
    11  C   -0.000814  -0.000358   0.000101   0.014121   0.011807  -0.001177
    12  C    0.000622  -0.000424  -0.001228   0.000955   0.015878   0.010607
    13  C   -0.066491   0.389090  -0.081789   0.004048   0.003586   0.003019
    14  C   -0.085961  -0.089337  -0.000240   0.002132   0.002975   0.001945
    15  C   -0.002634  -0.081395  -0.093623   0.000321   0.002532   0.002251
    16  C    0.001534  -0.062555   0.410706  -0.071900   0.001819   0.001698
    17  C    0.396687  -0.068530   0.004690   0.002109   0.002119  -0.071048
    18  C   -0.084441   0.001483   0.002649   0.003001  -0.000469  -0.092926
    19  C   -0.003133   0.002254   0.003101  -0.003440  -0.089706  -0.080518
    20  C   -0.069344   0.002260   0.002064   0.003650  -0.069723   0.396617
    21  C    0.001996   0.002002   0.005839  -0.070691   0.380698  -0.067714
    22  C    0.003299   0.003585   0.001072  -0.088734  -0.100707  -0.002417
    23  C    0.003124  -0.002535  -0.096368  -0.098582   0.002128   0.003649
    24  C    0.001953   0.002158  -0.074568   0.401325  -0.059506   0.002995
               7          8          9         10         11         12
     1  C    0.012620   0.011752   0.000357  -0.000827  -0.000814   0.000622
     2  C    0.000059   0.013221   0.011061  -0.001153  -0.000358  -0.000424
     3  C   -0.001145   0.001719   0.015061   0.012326   0.000101  -0.001228
     4  C   -0.000702  -0.000835   0.000643   0.014296   0.014121   0.000955
     5  C    0.001484  -0.001137  -0.001028  -0.000141   0.011807   0.015878
     6  C    0.012307   0.000269  -0.000284  -0.000413  -0.001177   0.010607
     7  C    5.110652   0.452517  -0.052106  -0.037448  -0.057769   0.513535
     8  C    0.452517   5.112334   0.511161  -0.054521  -0.036628  -0.055884
     9  C   -0.052106   0.511161   4.985039   0.489152  -0.065482  -0.034332
    10  C   -0.037448  -0.054521   0.489152   5.027001   0.524561  -0.066882
    11  C   -0.057769  -0.036628  -0.065482   0.524561   5.026881   0.490185
    12  C    0.513535  -0.055884  -0.034332  -0.066882   0.490185   4.994979
    13  C    0.004556  -0.109535  -0.102589  -0.002240   0.003297   0.003983
    14  C   -0.061057   0.392995  -0.077439   0.002612   0.003065   0.001638
    15  C    0.003813  -0.073593   0.427782  -0.063990  -0.000994   0.001563
    16  C    0.000865   0.004764  -0.083886  -0.089486  -0.002231   0.001855
    17  C   -0.097944  -0.076054  -0.004267   0.004252   0.004471  -0.005894
    18  C    0.384575  -0.062925   0.003763   0.002431   0.001534  -0.066593
    19  C   -0.064610   0.004533   0.000118   0.000556  -0.059144   0.405693
    20  C   -0.090286  -0.001108   0.003601   0.003527  -0.002393  -0.098447
    21  C   -0.000448   0.002488   0.002354  -0.002216  -0.088070  -0.094671
    22  C    0.004866   0.001233   0.005455  -0.070085   0.384725  -0.066467
    23  C    0.001573   0.005551  -0.074539   0.393875  -0.064910   0.003908
    24  C    0.002235   0.000587   0.000055  -0.088636  -0.090105   0.003252
              13         14         15         16         17         18
     1  C   -0.066491  -0.085961  -0.002634   0.001534   0.396687  -0.084441
     2  C    0.389090  -0.089337  -0.081395  -0.062555  -0.068530   0.001483
     3  C   -0.081789  -0.000240  -0.093623   0.410706   0.004690   0.002649
     4  C    0.004048   0.002132   0.000321  -0.071900   0.002109   0.003001
     5  C    0.003586   0.002975   0.002532   0.001819   0.002119  -0.000469
     6  C    0.003019   0.001945   0.002251   0.001698  -0.071048  -0.092926
     7  C    0.004556  -0.061057   0.003813   0.000865  -0.097944   0.384575
     8  C   -0.109535   0.392995  -0.073593   0.004764  -0.076054  -0.062925
     9  C   -0.102589  -0.077439   0.427782  -0.083886  -0.004267   0.003763
    10  C   -0.002240   0.002612  -0.063990  -0.089486   0.004252   0.002431
    11  C    0.003297   0.003065  -0.000994  -0.002231   0.004471   0.001534
    12  C    0.003983   0.001638   0.001563   0.001855  -0.005894  -0.066593
    13  C    5.091574   0.440341   0.571610  -0.070090  -0.066655   0.006101
    14  C    0.440341   5.053172  -0.081046   0.010143   0.555358  -0.069820
    15  C    0.571610  -0.081046   5.072173   0.389611  -0.016970   0.003306
    16  C   -0.070090   0.010143   0.389611   5.078049   0.002589  -0.001304
    17  C   -0.066655   0.555358  -0.016970   0.002589   5.081003   0.405674
    18  C    0.006101  -0.069820   0.003306  -0.001304   0.405674   5.070181
    19  C   -0.001486   0.003496  -0.001180   0.002584   0.010783  -0.088358
    20  C    0.001468  -0.014138   0.002392  -0.001007  -0.066512   0.577425
    21  C   -0.001219   0.001447  -0.001564   0.003693   0.003036  -0.009326
    22  C    0.001156  -0.001188   0.002998  -0.012484  -0.001306   0.002615
    23  C   -0.007389   0.002244  -0.076336   0.573485   0.001326  -0.001183
    24  C    0.003230  -0.001180   0.012600  -0.077816  -0.001098   0.001721
              19         20         21         22         23         24
     1  C   -0.003133  -0.069344   0.001996   0.003299   0.003124   0.001953
     2  C    0.002254   0.002260   0.002002   0.003585  -0.002535   0.002158
     3  C    0.003101   0.002064   0.005839   0.001072  -0.096368  -0.074568
     4  C   -0.003440   0.003650  -0.070691  -0.088734  -0.098582   0.401325
     5  C   -0.089706  -0.069723   0.380698  -0.100707   0.002128  -0.059506
     6  C   -0.080518   0.396617  -0.067714  -0.002417   0.003649   0.002995
     7  C   -0.064610  -0.090286  -0.000448   0.004866   0.001573   0.002235
     8  C    0.004533  -0.001108   0.002488   0.001233   0.005551   0.000587
     9  C    0.000118   0.003601   0.002354   0.005455  -0.074539   0.000055
    10  C    0.000556   0.003527  -0.002216  -0.070085   0.393875  -0.088636
    11  C   -0.059144  -0.002393  -0.088070   0.384725  -0.064910  -0.090105
    12  C    0.405693  -0.098447  -0.094671  -0.066467   0.003908   0.003252
    13  C   -0.001486   0.001468  -0.001219   0.001156  -0.007389   0.003230
    14  C    0.003496  -0.014138   0.001447  -0.001188   0.002244  -0.001180
    15  C   -0.001180   0.002392  -0.001564   0.002998  -0.076336   0.012600
    16  C    0.002584  -0.001007   0.003693  -0.012484   0.573485  -0.077816
    17  C    0.010783  -0.066512   0.003036  -0.001306   0.001326  -0.001098
    18  C   -0.088358   0.577425  -0.009326   0.002615  -0.001183   0.001721
    19  C    5.084186   0.393017   0.567780  -0.077447   0.003062  -0.016458
    20  C    0.393017   5.097728  -0.070840   0.010004  -0.001312   0.003217
    21  C    0.567780  -0.070840   5.088098   0.431814   0.007964  -0.081044
    22  C   -0.077447   0.010004   0.431814   5.092311  -0.071085   0.561869
    23  C    0.003062  -0.001312   0.007964  -0.071085   5.095333   0.410964
    24  C   -0.016458   0.003217  -0.081044   0.561869   0.410964   5.082176
 Mulliken charges:
               1
     1  C    0.008206
     2  C    0.009871
     3  C    0.005100
     4  C    0.006927
     5  C    0.009659
     6  C    0.008826
     7  C   -0.042144
     8  C   -0.042905
     9  C    0.040350
    10  C    0.003449
    11  C    0.005326
    12  C    0.042168
    13  C   -0.017576
    14  C    0.007844
    15  C    0.000372
    16  C   -0.010636
    17  C    0.002179
    18  C    0.010884
    19  C    0.004317
    20  C   -0.011859
    21  C   -0.011407
    22  C   -0.015082
    23  C   -0.013945
    24  C    0.000076
 Sum of Mulliken charges =  -0.00000
 Mulliken charges with hydrogens summed into heavy atoms:
               1
     1  C    0.008206
     2  C    0.009871
     3  C    0.005100
     4  C    0.006927
     5  C    0.009659
     6  C    0.008826
     7  C   -0.042144
     8  C   -0.042905
     9  C    0.040350
    10  C    0.003449
    11  C    0.005326
    12  C    0.042168
    13  C   -0.017576
    14  C    0.007844
    15  C    0.000372
    16  C   -0.010636
    17  C    0.002179
    18  C    0.010884
    19  C    0.004317
    20  C   -0.011859
    21  C   -0.011407
    22  C   -0.015082
    23  C   -0.013945
    24  C    0.000076
 Electronic spatial extent (au):  <R**2>=           2916.1635
 Charge=             -0.0000 electrons
 Dipole moment (field-independent basis, Debye):
    X=             -0.2748    Y=              0.2817    Z=              0.2306  Tot=              0.4561
 Quadrupole moment (field-independent basis, Debye-Ang):
   XX=           -132.0856   YY=           -130.5011   ZZ=           -132.8435
   XY=              0.4914   XZ=              1.1637   YZ=              0.1679
 Traceless Quadrupole moment (field-independent basis, Debye-Ang):
   XX=             -0.2756   YY=              1.3090   ZZ=             -1.0335
   XY=              0.4914   XZ=              1.1637   YZ=              0.1679
 Octapole moment (field-independent basis, Debye-Ang**2):
  XXX=             -0.7848  YYY=              2.0961  ZZZ=              2.2725  XYY=             -0.8596
  XXY=              0.5196  XXZ=              2.6656  XZZ=             -2.3195  YZZ=              0.0815
  YYZ=             -0.1815  XYZ=              0.1051
 Hexadecapole moment (field-independent basis, Debye-Ang**3):
 XXXX=          -1634.6107 YYYY=          -1567.8895 ZZZZ=          -1264.6260 XXXY=              1.8874
 XXXZ=              3.1523 YYYX=              3.9556 YYYZ=              0.8573 ZZZX=             13.0726
 ZZZY=              0.4681 XXYY=           -537.9955 XXZZ=           -485.2152 YYZZ=           -469.3518
 XXYZ=              0.5130 YYXZ=              0.6397 ZZXY=             -0.4356
 N-N= 1.901498971891D+03 E-N=-5.917250947985D+03  KE= 9.053367169120D+02
 Calling FoFJK, ICntrl=      2127 FMM=F ISym2X=0 I1Cent= 0 IOpClX= 0 NMat=1 NMatS=1 NMatT=0.
 ***** Axes restored to original set *****
 -------------------------------------------------------------------
 Center     Atomic                   Forces (Hartrees/Bohr)
 Number     Number              X              Y              Z
 -------------------------------------------------------------------
      1        6          -0.002198010   -0.003300413    0.001331784
      2        6          -0.006076711    0.001933942   -0.007660432
      3        6          -0.002934315   -0.000208192    0.006521287
      4        6          -0.001067566    0.007210133    0.000258038
      5        6           0.000119990   -0.003581290    0.016231076
      6        6          -0.003585377   -0.005664589   -0.000376607
      7        6          -0.036705560   -0.050634456   -0.021666225
      8        6          -0.034079105    0.061398686   -0.014859849
      9        6           0.034804555    0.009421450    0.000895370
     10        6           0.001217054    0.005534704   -0.002872087
     11        6           0.000553771   -0.013013574   -0.005324328
     12        6           0.034490347   -0.010984654   -0.008112137
     13        6          -0.020892073   -0.029003890   -0.028220914
     14        6           0.012157781    0.033022087    0.021088827
     15        6           0.018274617   -0.008631292    0.044258622
     16        6          -0.010629585    0.025868339   -0.026116159
     17        6           0.001439402   -0.043841073    0.001871494
     18        6          -0.013199593    0.039661714   -0.010229255
     19        6          -0.049810091    0.008512328   -0.032792241
     20        6           0.024383005   -0.021680206    0.032182888
     21        6           0.047577381    0.025798991    0.025368750
     22        6          -0.012954245   -0.038024804   -0.012144251
     23        6           0.016564628   -0.035104537    0.018941495
     24        6           0.002549699    0.045310595    0.001424853
 -------------------------------------------------------------------
 Cartesian Forces:  Max     0.061398686 RMS     0.023377588

 GradGradGradGradGradGradGradGradGradGradGradGradGradGradGradGradGradGrad
 Berny optimization.
 FormGI is forming the generalized inverse of G from B-inverse, IUseBI=4.
 Internal  Forces:  Max     0.043388734 RMS     0.007916089
 Search for a local minimum.
 Step number   1 out of a maximum of  144
 All quantities printed in internal units (Hartrees-Bohrs-Radians)
 Mixed Optimization -- RFO/linear search
 Second derivative matrix not updated -- first step.
 ITU=  0
     Eigenvalues ---    0.03648   0.03874   0.03979   0.04407   0.04478
     Eigenvalues ---    0.04697   0.04875   0.05025   0.05216   0.05697
     Eigenvalues ---    0.05796   0.06440   0.06466   0.06754   0.07097
     Eigenvalues ---    0.07155   0.07444   0.08037   0.08143   0.08408
     Eigenvalues ---    0.08555   0.08622   0.08677   0.08990   0.09181
     Eigenvalues ---    0.09510   0.09751   0.10079   0.11882   0.12426
     Eigenvalues ---    0.16067   0.16430   0.17321   0.17714   0.17923
     Eigenvalues ---    0.17946   0.18390   0.21603   0.21776   0.22127
     Eigenvalues ---    0.22981   0.25639   0.28297   0.28401   0.29206
     Eigenvalues ---    0.30912   0.31599   0.32098   0.33232   0.34184
     Eigenvalues ---    0.34870   0.35136   0.36619   0.36705   0.37221
     Eigenvalues ---    0.37667   0.38449   0.39168   0.39199   0.40332
     Eigenvalues ---    0.40769   0.40960   0.41785   0.41851   0.42053
     Eigenvalues ---    0.42402
 RFO step:  Lambda=-4.85581988D-02 EMin= 3.64843476D-02
 Linear search not attempted -- first point.
 Maximum step size (   0.300) exceeded in Quadratic search.
    -- Step size scaled by   0.879
 Iteration  1 RMS(Cart)=  0.02017275 RMS(Int)=  0.00058982
 Iteration  2 RMS(Cart)=  0.00035441 RMS(Int)=  0.00040186
 Iteration  3 RMS(Cart)=  0.00000010 RMS(Int)=  0.00040186
 Variable       Old X    -DE/DX   Delta X   Delta X   Delta X     New X
                                 (Linear)    (Quad)   (Total)
    R1        2.68095  -0.00170   0.00000   0.00101   0.00080   2.68175
    R2        2.68088  -0.00159   0.00000   0.00122   0.00114   2.68202
    R3        2.90378  -0.00240   0.00000  -0.00374  -0.00357   2.90022
    R4        2.71494  -0.00672   0.00000  -0.01213  -0.01206   2.70288
    R5        2.87587   0.00296   0.00000   0.01366   0.01369   2.88956
    R6        2.68946   0.00293   0.00000   0.00538   0.00546   2.69492
    R7        2.85489   0.00454   0.00000   0.00822   0.00804   2.86293
    R8        2.68943  -0.00196   0.00000  -0.00528  -0.00521   2.68422
    R9        2.89235   0.00286   0.00000   0.00360   0.00369   2.89604
   R10        2.71505  -0.00840   0.00000  -0.01687  -0.01670   2.69834
   R11        2.85462   0.01276   0.00000   0.03172   0.03186   2.88649
   R12        2.87608   0.00115   0.00000   0.00554   0.00533   2.88142
   R13        3.02801  -0.04339   0.00000  -0.16460  -0.16286   2.86515
   R14        2.76309  -0.02223   0.00000  -0.05900  -0.05817   2.70492
   R15        2.86967   0.01073   0.00000   0.01423   0.01470   2.88437
   R16        2.76358  -0.02243   0.00000  -0.05738  -0.05632   2.70726
   R17        2.86967   0.01001   0.00000   0.01390   0.01511   2.88479
   R18        2.69741  -0.00450   0.00000  -0.00085  -0.00081   2.69660
   R19        2.77310   0.01248   0.00000   0.03244   0.03260   2.80570
   R20        2.67960  -0.01565   0.00000  -0.01661  -0.01708   2.66251
   R21        2.92160  -0.00264   0.00000  -0.00746  -0.00762   2.91398
   R22        2.69761  -0.00749   0.00000  -0.00633  -0.00651   2.69110
   R23        2.92087  -0.00103   0.00000  -0.00078  -0.00056   2.92031
   R24        2.77339   0.01430   0.00000   0.03746   0.03738   2.81077
   R25        2.68067   0.01962   0.00000   0.04019   0.04000   2.72068
   R26        2.65213  -0.03146   0.00000  -0.05072  -0.05143   2.60071
   R27        2.65744  -0.03179   0.00000  -0.05567  -0.05593   2.60151
   R28        2.73253   0.01884   0.00000   0.03799   0.03770   2.77023
   R29        2.65736  -0.02147   0.00000  -0.04530  -0.04576   2.61160
   R30        2.65733   0.01886   0.00000   0.04226   0.04135   2.69868
   R31        2.68062  -0.02911   0.00000  -0.05924  -0.05945   2.62117
   R32        2.65232   0.02524   0.00000   0.05756   0.05655   2.70887
   R33        2.73211  -0.04035   0.00000  -0.08871  -0.08901   2.64310
   R34        2.65782   0.02501   0.00000   0.04678   0.04643   2.70425
   R35        2.67701  -0.02444   0.00000  -0.05182  -0.05205   2.62496
   R36        2.67722   0.02654   0.00000   0.04877   0.04841   2.72563
    A1        2.10544   0.00088   0.00000   0.00012   0.00011   2.10555
    A2        1.86801   0.00063   0.00000   0.00430   0.00422   1.87223
    A3        1.86798  -0.00457   0.00000  -0.01635  -0.01646   1.85152
    A4        2.09078  -0.00106   0.00000  -0.00420  -0.00419   2.08659
    A5        1.84631  -0.00199   0.00000  -0.00418  -0.00437   1.84195
    A6        1.88271   0.00107   0.00000   0.00844   0.00857   1.89128
    A7        2.08869   0.00012   0.00000   0.00158   0.00162   2.09031
    A8        1.86438  -0.00354   0.00000  -0.01499  -0.01503   1.84935
    A9        1.86301   0.00171   0.00000   0.00512   0.00495   1.86795
   A10        2.10199  -0.00075   0.00000   0.00090   0.00084   2.10283
   A11        1.85625  -0.00250   0.00000  -0.00931  -0.00938   1.84687
   A12        1.85653   0.00306   0.00000   0.00944   0.00939   1.86593
   A13        2.08875   0.00006   0.00000  -0.00221  -0.00232   2.08643
   A14        1.86306  -0.00449   0.00000  -0.01513  -0.01509   1.84797
   A15        1.86426   0.00298   0.00000   0.01216   0.01203   1.87629
   A16        2.09069   0.00074   0.00000   0.00384   0.00395   2.09465
   A17        1.84635   0.00360   0.00000   0.01510   0.01482   1.86117
   A18        1.88281  -0.00644   0.00000  -0.02443  -0.02439   1.85842
   A19        2.00447   0.00626   0.00000   0.03372   0.03394   2.03840
   A20        1.80437  -0.00031   0.00000   0.00317   0.00214   1.80652
   A21        1.77230   0.00724   0.00000   0.04457   0.04396   1.81625
   A22        2.00416   0.00537   0.00000   0.03012   0.02987   2.03403
   A23        1.80374   0.00815   0.00000   0.03855   0.03840   1.84213
   A24        1.77206   0.00042   0.00000   0.01804   0.01625   1.78830
   A25        2.18280  -0.00323   0.00000  -0.02165  -0.02178   2.16102
   A26        1.92131   0.00105   0.00000  -0.00780  -0.00778   1.91353
   A27        1.84918  -0.00013   0.00000   0.00179   0.00142   1.85061
   A28        2.08833  -0.00211   0.00000  -0.00586  -0.00616   2.08217
   A29        1.88422   0.00087   0.00000  -0.00061  -0.00077   1.88345
   A30        1.86684  -0.00077   0.00000  -0.01079  -0.01064   1.85620
   A31        2.08869  -0.00275   0.00000  -0.00833  -0.00865   2.08004
   A32        1.86678   0.00582   0.00000   0.01408   0.01393   1.88071
   A33        1.88403  -0.00579   0.00000  -0.02601  -0.02569   1.85834
   A34        2.18258  -0.00250   0.00000  -0.02008  -0.02020   2.16238
   A35        1.92121  -0.00411   0.00000  -0.03161  -0.03173   1.88949
   A36        1.84925   0.00309   0.00000   0.01560   0.01524   1.86449
   A37        1.91724  -0.00834   0.00000  -0.02139  -0.02111   1.89612
   A38        1.86343   0.00708   0.00000   0.01118   0.01094   1.87437
   A39        1.88702  -0.00340   0.00000  -0.01489  -0.01496   1.87207
   A40        1.93711  -0.00488   0.00000  -0.01074  -0.01076   1.92634
   A41        1.94557   0.00186   0.00000  -0.01090  -0.01006   1.93551
   A42        1.88182   0.00277   0.00000   0.01036   0.00998   1.89180
   A43        1.88600   0.00843   0.00000   0.02590   0.02558   1.91159
   A44        1.92830  -0.00935   0.00000  -0.02577  -0.02565   1.90265
   A45        1.92802  -0.00078   0.00000  -0.00880  -0.00834   1.91968
   A46        1.86328  -0.00370   0.00000   0.00501   0.00462   1.86790
   A47        1.90849   0.00587   0.00000   0.01290   0.01300   1.92149
   A48        1.88573   0.00096   0.00000   0.00789   0.00783   1.89356
   A49        1.89771   0.00647   0.00000   0.00781   0.00782   1.90553
   A50        1.89773  -0.00414   0.00000  -0.00669  -0.00642   1.89131
   A51        1.92056  -0.00402   0.00000  -0.02010  -0.02023   1.90033
   A52        1.94514  -0.00597   0.00000  -0.01255  -0.01235   1.93278
   A53        1.93711   0.00400   0.00000  -0.00411  -0.00364   1.93347
   A54        1.88192   0.00234   0.00000   0.00762   0.00731   1.88922
   A55        1.88607  -0.00428   0.00000   0.00541   0.00502   1.89109
   A56        1.92833   0.00382   0.00000   0.00051   0.00077   1.92910
   A57        1.92817  -0.00068   0.00000  -0.00858  -0.00843   1.91974
   A58        1.91710   0.00234   0.00000  -0.00209  -0.00186   1.91524
   A59        1.86307  -0.00093   0.00000   0.00870   0.00854   1.87162
   A60        1.88690  -0.00233   0.00000  -0.00829  -0.00860   1.87830
   A61        1.86343   0.00512   0.00000   0.01292   0.01291   1.87634
   A62        1.90809  -0.00508   0.00000  -0.00596  -0.00609   1.90200
   A63        1.88550   0.00059   0.00000   0.00493   0.00483   1.89034
   A64        1.86129  -0.00160   0.00000   0.00620   0.00602   1.86731
   A65        1.87354   0.00334   0.00000   0.00640   0.00648   1.88002
   A66        1.89225  -0.00115   0.00000  -0.00413  -0.00419   1.88806
   A67        1.86087   0.00771   0.00000   0.01695   0.01696   1.87783
   A68        1.87312  -0.00526   0.00000  -0.00238  -0.00249   1.87063
   A69        1.89184  -0.00092   0.00000  -0.00394  -0.00395   1.88789
   A70        1.89067   0.00790   0.00000   0.01771   0.01782   1.90849
   A71        1.89114  -0.00384   0.00000  -0.00237  -0.00251   1.88863
   A72        1.91855  -0.00283   0.00000  -0.00476  -0.00491   1.91363
    D1        0.00919  -0.00034   0.00000  -0.00736  -0.00739   0.00180
    D2        2.13780  -0.00133   0.00000  -0.00248  -0.00248   2.13532
    D3       -2.12884   0.00474   0.00000   0.01121   0.01140  -2.11745
    D4       -0.00023   0.00376   0.00000   0.01609   0.01630   0.01608
    D5       -0.00922   0.00006   0.00000   0.00434   0.00431  -0.00491
    D6       -2.13795   0.00514   0.00000   0.02164   0.02176  -2.11619
    D7        2.12882  -0.00252   0.00000  -0.00431  -0.00445   2.12437
    D8        0.00009   0.00255   0.00000   0.01300   0.01300   0.01309
    D9        0.09447  -0.00065   0.00000  -0.00153  -0.00144   0.09304
   D10        2.18547  -0.00414   0.00000  -0.02514  -0.02501   2.16046
   D11       -2.18539   0.00088   0.00000   0.00634   0.00651  -2.17889
   D12       -0.09439  -0.00260   0.00000  -0.01727  -0.01707  -0.11146
   D13       -0.00541   0.00053   0.00000   0.00598   0.00604   0.00062
   D14        2.11062  -0.00009   0.00000   0.00124   0.00111   2.11172
   D15       -2.11602   0.00307   0.00000   0.00741   0.00762  -2.10840
   D16        0.00001   0.00245   0.00000   0.00267   0.00269   0.00270
   D17       -0.09390  -0.00351   0.00000  -0.02183  -0.02178  -0.11568
   D18       -2.13603   0.00091   0.00000   0.00073   0.00080  -2.13522
   D19        2.16318  -0.00542   0.00000  -0.02437  -0.02436   2.13882
   D20        0.12106  -0.00100   0.00000  -0.00181  -0.00178   0.11928
   D21        0.00178  -0.00045   0.00000  -0.00165  -0.00169   0.00008
   D22        2.11138   0.00101   0.00000   0.00372   0.00351   2.11489
   D23       -2.11493   0.00279   0.00000   0.01307   0.01320  -2.10174
   D24       -0.00533   0.00425   0.00000   0.01845   0.01840   0.01307
   D25       -0.11748  -0.00043   0.00000   0.00152   0.00139  -0.11609
   D26       -2.15347  -0.00256   0.00000  -0.01712  -0.01730  -2.17077
   D27        2.13618  -0.00144   0.00000  -0.00280  -0.00299   2.13319
   D28        0.10019  -0.00357   0.00000  -0.02144  -0.02168   0.07850
   D29       -0.00181   0.00018   0.00000  -0.00132  -0.00136  -0.00317
   D30        2.11482   0.00042   0.00000   0.00066   0.00045   2.11527
   D31       -2.11128   0.00145   0.00000   0.00252   0.00265  -2.10862
   D32        0.00536   0.00169   0.00000   0.00450   0.00445   0.00981
   D33       -2.17055  -0.00058   0.00000  -0.00928  -0.00920  -2.17975
   D34       -0.08980  -0.00166   0.00000  -0.00631  -0.00639  -0.09619
   D35        0.09013  -0.00114   0.00000  -0.00811  -0.00822   0.08191
   D36        2.17087  -0.00223   0.00000  -0.00513  -0.00540   2.16548
   D37        0.00548   0.00001   0.00000   0.00001   0.00008   0.00557
   D38        2.11618  -0.00010   0.00000   0.00227   0.00203   2.11821
   D39       -2.11056   0.00349   0.00000   0.01160   0.01183  -2.09873
   D40        0.00013   0.00337   0.00000   0.01385   0.01378   0.01391
   D41       -2.13614  -0.00043   0.00000  -0.00505  -0.00500  -2.14114
   D42       -0.10054   0.00044   0.00000   0.00472   0.00458  -0.09597
   D43        0.11755  -0.00131   0.00000  -0.00963  -0.00986   0.10769
   D44        2.15315  -0.00045   0.00000   0.00014  -0.00029   2.15286
   D45        0.09405   0.00011   0.00000  -0.00143  -0.00133   0.09273
   D46        2.13576  -0.00195   0.00000  -0.00748  -0.00773   2.12802
   D47       -2.16302   0.00092   0.00000  -0.00055  -0.00027  -2.16329
   D48       -0.12132  -0.00114   0.00000  -0.00661  -0.00667  -0.12799
   D49       -0.00045  -0.00057   0.00000  -0.00185  -0.00160  -0.00204
   D50       -1.91407  -0.00800   0.00000  -0.05786  -0.05868  -1.97275
   D51        1.91396   0.01040   0.00000   0.06663   0.06767   1.98163
   D52        0.00034   0.00297   0.00000   0.01062   0.01059   0.01093
   D53       -0.13344   0.00469   0.00000   0.03530   0.03587  -0.09757
   D54        2.09838   0.00225   0.00000   0.00268   0.00457   2.10295
   D55       -2.06708  -0.00156   0.00000  -0.00724  -0.00867  -2.07575
   D56        0.16474  -0.00400   0.00000  -0.03986  -0.03997   0.12477
   D57       -0.05874  -0.00362   0.00000  -0.01845  -0.01849  -0.07723
   D58       -2.15659  -0.00528   0.00000  -0.01689  -0.01705  -2.17364
   D59        2.02352   0.00591   0.00000   0.03680   0.03818   2.06171
   D60       -0.07433   0.00425   0.00000   0.03836   0.03962  -0.03471
   D61        0.13425  -0.00417   0.00000  -0.03330  -0.03411   0.10015
   D62       -2.09779  -0.00195   0.00000  -0.00512  -0.00635  -2.10414
   D63        2.06689   0.00771   0.00000   0.03396   0.03443   2.10132
   D64       -0.16516   0.00994   0.00000   0.06214   0.06219  -0.10297
   D65        2.15617   0.00118   0.00000   0.00064   0.00130   2.15747
   D66        0.05816  -0.00027   0.00000   0.00212   0.00256   0.06072
   D67        0.07457  -0.00783   0.00000  -0.05334  -0.05417   0.02040
   D68       -2.02344  -0.00929   0.00000  -0.05185  -0.05291  -2.07635
   D69       -0.14004   0.00541   0.00000   0.03886   0.03882  -0.10122
   D70       -2.27820   0.00728   0.00000   0.05858   0.05851  -2.21969
   D71        2.12127   0.00383   0.00000   0.00825   0.00861   2.12988
   D72       -0.01689   0.00570   0.00000   0.02797   0.02830   0.01141
   D73        0.20571  -0.00614   0.00000  -0.04593  -0.04617   0.15954
   D74        2.31684  -0.00743   0.00000  -0.05596  -0.05615   2.26069
   D75       -2.19918  -0.00255   0.00000  -0.01180  -0.01208  -2.21126
   D76       -0.08805  -0.00384   0.00000  -0.02183  -0.02205  -0.11011
   D77        0.00009  -0.00046   0.00000  -0.00114  -0.00089  -0.00080
   D78       -2.14651   0.00435   0.00000   0.02812   0.02822  -2.11829
   D79        2.14675  -0.00150   0.00000  -0.01573  -0.01551   2.13124
   D80        0.00015   0.00331   0.00000   0.01353   0.01360   0.01375
   D81        0.11709  -0.00361   0.00000  -0.02067  -0.02097   0.09612
   D82        2.14132  -0.00343   0.00000  -0.01803  -0.01836   2.12296
   D83       -2.15157  -0.00104   0.00000  -0.00564  -0.00575  -2.15732
   D84       -0.12735  -0.00085   0.00000  -0.00299  -0.00313  -0.13048
   D85        0.13960  -0.00500   0.00000  -0.03814  -0.03831   0.10129
   D86       -2.12143   0.00018   0.00000   0.01197   0.01147  -2.10995
   D87        2.27777  -0.00419   0.00000  -0.04799  -0.04782   2.22995
   D88        0.01674   0.00100   0.00000   0.00212   0.00197   0.01871
   D89        2.15224  -0.00247   0.00000  -0.01338  -0.01369   2.13855
   D90        0.12713  -0.00198   0.00000  -0.01478  -0.01502   0.11210
   D91       -0.11670   0.00088   0.00000   0.00487   0.00480  -0.11190
   D92       -2.14182   0.00137   0.00000   0.00347   0.00347  -2.13835
   D93       -0.20526   0.00288   0.00000   0.02932   0.02928  -0.17598
   D94       -2.31664   0.00412   0.00000   0.03612   0.03599  -2.28065
   D95        2.19932  -0.00124   0.00000  -0.01054  -0.01030   2.18902
   D96        0.08794   0.00000   0.00000  -0.00374  -0.00359   0.08435
   D97       -1.98068   0.00240   0.00000   0.03558   0.03513  -1.94555
   D98        0.15480   0.00348   0.00000   0.02219   0.02249   0.17729
   D99        0.04663   0.00441   0.00000   0.02895   0.02885   0.07548
   D100       2.18211   0.00550   0.00000   0.01556   0.01621   2.19832
   D101       1.91143  -0.00565   0.00000  -0.01557  -0.01579   1.89564
   D102      -0.19987   0.00098   0.00000   0.00502   0.00476  -0.19511
   D103      -0.15060   0.00212   0.00000   0.01125   0.01083  -0.13976
   D104      -2.26190   0.00874   0.00000   0.03184   0.03139  -2.23051
   D105       1.97756  -0.00497   0.00000  -0.02676  -0.02687   1.95068
   D106      -0.09919  -0.00148   0.00000  -0.01148  -0.01190  -0.11109
   D107      -0.15271  -0.00191   0.00000  -0.01348  -0.01381  -0.16652
   D108      -2.22945   0.00158   0.00000   0.00179   0.00116  -2.22829
   D109      -1.88478  -0.00401   0.00000  -0.01284  -0.01272  -1.89750
   D110       0.16626   0.00140   0.00000   0.00888   0.00912   0.17538
   D111       0.20116  -0.00001   0.00000  -0.00274  -0.00249   0.19867
   D112       2.25220   0.00540   0.00000   0.01898   0.01935   2.27155
   D113       1.85320   0.00017   0.00000   0.02239   0.02220   1.87540
   D114      -0.15845   0.00281   0.00000   0.01846   0.01839  -0.14007
   D115      -0.16852   0.00091   0.00000   0.00527   0.00517  -0.16334
   D116      -2.18017   0.00355   0.00000   0.00133   0.00136  -2.17881
   D117      -1.97733   0.00046   0.00000   0.02610   0.02581  -1.95151
   D118       0.15274   0.00325   0.00000   0.01821   0.01840   0.17114
   D119       0.09941   0.00346   0.00000   0.01970   0.01980   0.11921
   D120       2.22947   0.00625   0.00000   0.01181   0.01239   2.24186
   D121       1.98011  -0.00509   0.00000  -0.02246  -0.02226   1.95784
   D122      -0.04663  -0.00394   0.00000  -0.02704  -0.02662  -0.07325
   D123      -0.15491  -0.00172   0.00000  -0.00935  -0.00948  -0.16439
   D124      -2.18165  -0.00057   0.00000  -0.01393  -0.01383  -2.19548
   D125      -1.91129  -0.00054   0.00000   0.00280   0.00277  -1.90852
   D126       0.15032   0.00051   0.00000   0.00070   0.00065   0.15096
   D127       0.20019   0.00102   0.00000   0.00166   0.00176   0.20195
   D128       2.26180   0.00207   0.00000  -0.00045  -0.00036   2.26144
   D129       1.88470  -0.00196   0.00000   0.01031   0.00992   1.89463
   D130      -0.16584   0.00099   0.00000   0.00800   0.00770  -0.15814
   D131      -0.20144   0.00136   0.00000   0.00875   0.00858  -0.19286
   D132      -2.25199   0.00431   0.00000   0.00643   0.00636  -2.24562
   D133      -1.85348  -0.00370   0.00000  -0.01863  -0.01847  -1.87195
   D134       0.15907  -0.00119   0.00000  -0.01005  -0.00992   0.14915
   D135       0.16808  -0.00001   0.00000  -0.00378  -0.00376   0.16432
   D136       2.18063   0.00250   0.00000   0.00479   0.00479   2.18542
   D137       1.85039   0.00084   0.00000   0.02010   0.01979   1.87018
   D138      -0.21300   0.00244   0.00000   0.01525   0.01512  -0.19788
   D139      -0.15416   0.00156   0.00000   0.01166   0.01155  -0.14262
   D140      -2.21755   0.00316   0.00000   0.00680   0.00688  -2.21067
   D141      -1.85007  -0.00633   0.00000  -0.02362  -0.02348  -1.87354
   D142       0.21304  -0.00068   0.00000  -0.00636  -0.00626   0.20678
   D143       0.15358  -0.00049   0.00000  -0.00704  -0.00696   0.14663
   D144       2.21669   0.00517   0.00000   0.01022   0.01026   2.22695
         Item               Value     Threshold  Converged?
 Maximum Force            0.043389     0.000450     NO 
 RMS     Force            0.007916     0.000300     NO 
 Maximum Displacement     0.122917     0.001800     NO 
 RMS     Displacement     0.020218     0.001200     NO 
 Predicted change in Energy=-2.775977D-02
 GradGradGradGradGradGradGradGradGradGradGradGradGradGradGradGradGradGrad

                          Input orientation:                          
 ---------------------------------------------------------------------
 Center     Atomic      Atomic             Coordinates (Angstroms)
 Number     Number       Type             X           Y           Z
 ---------------------------------------------------------------------
      1          6           0       -1.047010   -0.021997    2.176780
      2          6           0       -1.508574   -1.245673    1.625888
      3          6           0       -2.426439   -1.223859    0.529158
      4          6           0       -2.867765    0.024727    0.000007
      5          6           0       -2.402400    1.247037    0.554087
      6          6           0       -1.489080    1.220107    1.651369
      7          6           0        1.438808    0.779640   -0.035761
      8          6           0        1.454498   -0.736235   -0.010194
      9          6           0        0.568940   -1.401018   -0.919176
     10          6           0       -0.214742   -0.725140   -1.901675
     11          6           0       -0.226287    0.683564   -1.924833
     12          6           0        0.544549    1.400030   -0.965424
     13          6           0       -0.251356   -1.997257    1.186976
     14          6           0        0.884899   -1.128408    1.350744
     15          6           0       -0.376140   -2.257121   -0.158729
     16          6           0       -1.743750   -1.967865   -0.600268
     17          6           0        0.482784   -0.015325    2.053981
     18          6           0        0.871013    1.153348    1.330867
     19          6           0       -0.404288    2.253084   -0.200998
     20          6           0       -0.242175    1.969579    1.194777
     21          6           0       -1.721817    1.993131   -0.591904
     22          6           0       -1.689826    1.145907   -1.744736
     23          6           0       -1.681146   -1.168493   -1.725879
     24          6           0       -2.458751    0.020499   -1.476915
 ---------------------------------------------------------------------
                    Distance matrix (angstroms):
                    1          2          3          4          5
     1  C    0.000000
     2  C    1.419122   0.000000
     3  C    2.462104   1.430304   0.000000
     4  C    2.838252   2.470790   1.426091   0.000000
     5  C    2.465900   2.856797   2.471139   1.420427   0.000000
     6  C    1.419263   2.465989   2.847977   2.461037   1.427902
     7  C    3.423047   3.943353   4.390134   4.372384   3.914238
     8  C    3.398608   3.422878   3.948462   4.388750   4.373494
     9  C    3.754722   3.289004   3.331869   3.832570   4.244003
    10  C    4.221478   3.793238   3.324044   3.349213   3.834853
    11  C    4.242008   4.239557   3.808018   3.334139   3.346344
    12  C    3.798509   4.234379   4.236194   3.803604   3.319161
    13  C    2.348282   1.529091   2.400386   3.513248   3.943727
    14  C    2.374606   2.412089   3.413074   4.151710   4.133248
    15  C    3.301582   2.343137   2.396778   3.382340   4.110105
    16  C    3.461769   2.352156   1.514995   2.365198   3.478786
    17  C    1.534729   2.379607   3.499888   3.930215   3.488198
    18  C    2.403293   3.391869   4.143312   4.125946   3.365619
    19  C    3.353046   4.098569   4.087953   3.327867   2.361088
    20  C    2.361877   3.482452   3.925825   3.479030   2.366246
    21  C    3.490232   3.931148   3.478836   2.353332   1.527463
    22  C    4.141920   4.136860   3.365855   2.385102   2.408853
    23  C    4.116713   3.357094   2.375650   2.410502   3.399005
    24  C    3.917181   3.483306   2.360890   1.532518   2.373298
                    6          7          8          9         10
     6  C    0.000000
     7  C    3.407777   0.000000
     8  C    3.905473   1.516172   0.000000
     9  C    4.208734   2.508459   1.432619   0.000000
    10  C    4.246415   2.912083   2.522734   1.426980   0.000000
    11  C    3.830371   2.519993   2.916627   2.447287   1.408942
    12  C    3.318979   1.431383   2.510797   2.801536   2.443243
    13  C    3.478369   3.473169   2.435844   2.337577   3.340567
    14  C    3.352860   2.422779   1.526563   2.307961   3.456886
    15  C    4.075071   3.539926   2.384616   1.484712   2.326129
    16  C    3.911252   4.242185   3.477628   2.402406   2.361333
    17  C    2.361490   2.431661   2.392647   3.281346   4.078921
    18  C    2.382691   1.526342   2.389440   3.417415   3.893187
    19  C    2.382242   2.365448   3.525269   3.849080   3.434829
    20  C    1.524780   2.399142   3.413516   4.060497   4.104909
    21  C    2.384115   3.430948   4.228097   4.107910   3.372799
    22  C    3.402841   3.583727   4.054364   3.502913   2.387743
    23  C    4.141026   4.047942   3.600373   2.401609   1.542014
    24  C    3.487905   4.224239   4.247051   3.390973   2.402493
                   11         12         13         14         15
    11  C    0.000000
    12  C    1.424070   0.000000
    13  C    4.107407   4.099738   0.000000
    14  C    3.904789   3.445790   1.439721   0.000000
    15  C    3.433542   3.856576   1.376235   2.267756   0.000000
    16  C    3.329752   4.088077   2.328593   3.379487   1.465941
    17  C    4.101486   3.335245   2.284450   1.376660   3.264886
    18  C    3.467614   2.332463   3.347645   2.281884   3.924994
    19  C    2.338094   1.487394   4.473842   3.937562   4.510491
    20  C    3.374323   2.368500   3.966854   3.300325   4.440148
    21  C    2.393382   2.372277   4.609758   4.506978   4.479188
    22  C    1.545362   2.379987   4.532506   4.624252   3.977661
    23  C    2.363539   3.482717   3.349011   4.006470   2.311734
    24  C    2.371536   3.344330   4.005028   4.527211   3.355956
                   16         17         18         19         20
    16  C    0.000000
    17  C    3.976796   0.000000
    18  C    4.506466   1.428080   0.000000
    19  C    4.446346   3.319263   2.276493   0.000000
    20  C    4.580435   2.281149   1.387062   1.433473   0.000000
    21  C    3.961066   3.986837   3.335423   1.398666   2.319940
    22  C    3.317875   4.527576   4.002160   2.293813   3.378589
    23  C    1.381997   4.505522   4.609572   3.957628   4.521987
    24  C    2.287648   4.595775   4.500480   3.291386   3.981214
                   21         22         23         24
    21  C    0.000000
    22  C    1.431025   0.000000
    23  C    3.359080   2.314493   0.000000
    24  C    2.284206   1.389070   1.442343   0.000000
 Stoichiometry    C24
 Framework group  C1[X(C24)]
 Deg. of freedom    66
 Full point group                 C1      NOp   1
 Largest Abelian subgroup         C1      NOp   1
 Largest concise Abelian subgroup C1      NOp   1
                         Standard orientation:                         
 ---------------------------------------------------------------------
 Center     Atomic      Atomic             Coordinates (Angstroms)
 Number     Number       Type             X           Y           Z
 ---------------------------------------------------------------------
      1          6           0        1.268075    0.141294    1.729081
      2          6           0        0.729613   -1.170271    1.667719
      3          6           0       -0.686078   -1.347672    1.567137
      4          6           0       -1.541554   -0.207312    1.528753
      5          6           0       -0.998018    1.103596    1.589581
      6          6           0        0.415663    1.275513    1.693770
      7          6           0        1.283532    0.983571   -1.588686
      8          6           0        1.524955   -0.513239   -1.595996
      9          6           0        0.361612   -1.349320   -1.595725
     10          6           0       -0.972108   -0.854408   -1.707637
     11          6           0       -1.193950    0.536951   -1.702613
     12          6           0       -0.080624    1.417070   -1.584841
     13          6           0        1.384816   -1.825491    0.451366
     14          6           0        2.159940   -0.831862   -0.244823
     15          6           0        0.375383   -2.223050   -0.395402
     16          6           0       -0.919035   -2.120333    0.284976
     17          6           0        2.229698    0.295007    0.542891
     18          6           0        1.816497    1.423965   -0.227907
     19          6           0       -0.306085    2.235551   -0.363531
     20          6           0        0.840837    2.103734    0.486196
     21          6           0       -1.453039    1.804486    0.310967
     22          6           0       -2.134927    0.859901   -0.520070
     23          6           0       -1.791212   -1.428883   -0.534243
     24          6           0       -2.313991   -0.308797    0.209036
 ---------------------------------------------------------------------
 Rotational constants (GHZ):      0.5460899      0.5376864      0.4795918
 Standard basis: 6-31G(d,p) (6D, 7F)
 There are   360 symmetry adapted cartesian basis functions of A   symmetry.
 There are   360 symmetry adapted basis functions of A   symmetry.
   360 basis functions,   672 primitive gaussians,   360 cartesian basis functions
    72 alpha electrons       72 beta electrons
       nuclear repulsion energy      1906.5569294313 Hartrees.
 NAtoms=   24 NActive=   24 NUniq=   24 SFac= 1.00D+00 NAtFMM=   60 NAOKFM=F Big=F
 Integral buffers will be    131072 words long.
 Raffenetti 2 integral format.
 Two-electron integral symmetry is turned on.
 One-electron integrals computed using PRISM.
 NBasis=   360 RedAO= T EigKep=  5.49D-04  NBF=   360
 NBsUse=   360 1.00D-06 EigRej= -1.00D+00 NBFU=   360
 Initial guess from the checkpoint file:  "/scratch/tmp/3419169/Gau-146785.chk"
 B after Tr=     0.000000    0.000000    0.000000
         Rot=    0.997018   -0.002403   -0.026834   -0.072310 Ang=  -8.85 deg.
 ExpMin= 1.69D-01 ExpMax= 3.05D+03 ExpMxC= 4.57D+02 IAcc=1 IRadAn=         1 AccDes= 0.00D+00
 Harris functional with IExCor=  402 and IRadAn=       1 diagonalized for initial guess.
 HarFok:  IExCor=  402 AccDes= 0.00D+00 IRadAn=         1 IDoV= 1 UseB2=F ITyADJ=14
 ICtDFT=  3500011 ScaDFX=  1.000000  1.000000  1.000000  1.000000
 FoFCou: FMM=F IPFlag=           0 FMFlag=      100000 FMFlg1=           0
         NFxFlg=           0 DoJE=T BraDBF=F KetDBF=T FulRan=T
         wScrn=  0.000000 ICntrl=     500 IOpCl=  0 I1Cent=   200000004 NGrid=           0
         NMat0=    1 NMatS0=      1 NMatT0=    0 NMatD0=    1 NMtDS0=    0 NMtDT0=    0
 Petite list used in FoFCou.
 Requested convergence on RMS density matrix=1.00D-08 within  64 cycles.
 Requested convergence on MAX density matrix=1.00D-06.
 Requested convergence on             energy=1.00D-06.
 No special actions if energy rises.
 Integral accuracy reduced to 1.0D-05 until final iterations.
 Initial convergence to 1.0D-05 achieved.  Increase integral accuracy.
 SCF Done:  E(RB3LYP) =  -913.826201447     A.U. after   20 cycles
            NFock= 20  Conv=0.69D-08     -V/T= 2.0091
 QCSCF skips out because SCF is already converged.
 Calling FoFJK, ICntrl=      2127 FMM=F ISym2X=0 I1Cent= 0 IOpClX= 0 NMat=1 NMatS=1 NMatT=0.
 ***** Axes restored to original set *****
 -------------------------------------------------------------------
 Center     Atomic                   Forces (Hartrees/Bohr)
 Number     Number              X              Y              Z
 -------------------------------------------------------------------
      1        6           0.000335419    0.000476500    0.002816076
      2        6          -0.003819399    0.003020862   -0.002760752
      3        6           0.000034596    0.000388711    0.005195224
      4        6          -0.000387914   -0.000204958   -0.002572216
      5        6          -0.000498786   -0.002008797    0.003834173
      6        6          -0.001276030    0.000017341   -0.002516085
      7        6          -0.019028802   -0.040642582   -0.004931760
      8        6          -0.021788246    0.039125771   -0.007997734
      9        6           0.020099542    0.000595757   -0.007906123
     10        6          -0.000875399   -0.000301260   -0.002271255
     11        6          -0.001133643   -0.000550381   -0.001960633
     12        6           0.021196469    0.000865272   -0.005929673
     13        6          -0.008126823   -0.014660149   -0.013322585
     14        6           0.008695505    0.010895890    0.013393676
     15        6          -0.000546786   -0.007630617    0.018131267
     16        6           0.000675791    0.010200586   -0.012832334
     17        6           0.002036469   -0.020508359    0.003261314
     18        6          -0.005528707    0.025750218   -0.002629372
     19        6          -0.028743571    0.008284704   -0.013629177
     20        6           0.013915010   -0.009955972    0.014246591
     21        6           0.023028764    0.014549904    0.014863906
     22        6          -0.007094521   -0.022891213   -0.004566651
     23        6           0.007969569   -0.016306378    0.011032638
     24        6           0.000861494    0.021489151   -0.000948517
 -------------------------------------------------------------------
 Cartesian Forces:  Max     0.040642582 RMS     0.012826470

 GradGradGradGradGradGradGradGradGradGradGradGradGradGradGradGradGradGrad
 Berny optimization.
 Using GEDIIS/GDIIS optimizer.
 FormGI is forming the generalized inverse of G from B-inverse, IUseBI=4.
 Internal  Forces:  Max     0.024404071 RMS     0.003800876
 Search for a local minimum.
 Step number   2 out of a maximum of  144
 All quantities printed in internal units (Hartrees-Bohrs-Radians)
 Mixed Optimization -- RFO/linear search
 Update second derivatives using D2CorX and points    1    2
 DE= -3.22D-02 DEPred=-2.78D-02 R= 1.16D+00
 TightC=F SS=  1.41D+00  RLast= 3.91D-01 DXNew= 5.0454D-01 1.1735D+00
 Trust test= 1.16D+00 RLast= 3.91D-01 DXMaxT set to 5.05D-01
 ITU=  1  0
 Use linear search instead of GDIIS.
     Eigenvalues ---    0.03734   0.03905   0.04011   0.04444   0.04506
     Eigenvalues ---    0.04690   0.04904   0.05004   0.05169   0.05672
     Eigenvalues ---    0.05808   0.06089   0.06296   0.06749   0.07080
     Eigenvalues ---    0.07240   0.07432   0.08140   0.08209   0.08378
     Eigenvalues ---    0.08531   0.08573   0.08612   0.08920   0.09217
     Eigenvalues ---    0.09436   0.09655   0.09871   0.11666   0.12251
     Eigenvalues ---    0.16034   0.16253   0.17234   0.17642   0.17797
     Eigenvalues ---    0.17888   0.18610   0.20860   0.21520   0.22050
     Eigenvalues ---    0.22955   0.24519   0.27778   0.28385   0.29145
     Eigenvalues ---    0.30800   0.31562   0.32079   0.33110   0.33374
     Eigenvalues ---    0.34654   0.35173   0.36175   0.36721   0.36978
     Eigenvalues ---    0.37437   0.37818   0.38604   0.39298   0.39529
     Eigenvalues ---    0.40759   0.41217   0.41845   0.41945   0.42333
     Eigenvalues ---    0.42913
 RFO step:  Lambda=-7.21224393D-03 EMin= 3.73442613D-02
 Quartic linear search produced a step of  0.78217.
 Iteration  1 RMS(Cart)=  0.01958117 RMS(Int)=  0.00132476
 Iteration  2 RMS(Cart)=  0.00054056 RMS(Int)=  0.00112177
 Iteration  3 RMS(Cart)=  0.00000044 RMS(Int)=  0.00112177
 Variable       Old X    -DE/DX   Delta X   Delta X   Delta X     New X
                                 (Linear)    (Quad)   (Total)
    R1        2.68175   0.00128   0.00062   0.00867   0.00840   2.69015
    R2        2.68202   0.00108   0.00089   0.00817   0.00846   2.69048
    R3        2.90022  -0.00191  -0.00279  -0.00237  -0.00495   2.89527
    R4        2.70288  -0.00301  -0.00943  -0.00369  -0.01337   2.68951
    R5        2.88956   0.00284   0.01071   0.00914   0.01969   2.90925
    R6        2.69492   0.00145   0.00427  -0.00343   0.00081   2.69573
    R7        2.86293   0.00436   0.00629   0.01123   0.01713   2.88005
    R8        2.68422   0.00163  -0.00407   0.00680   0.00264   2.68686
    R9        2.89604   0.00018   0.00289  -0.00929  -0.00668   2.88936
   R10        2.69834  -0.00181  -0.01306   0.00526  -0.00789   2.69045
   R11        2.88649   0.00377   0.02492  -0.00898   0.01617   2.90266
   R12        2.88142   0.00073   0.00417  -0.00138   0.00205   2.88347
   R13        2.86515  -0.02440  -0.12739  -0.06825  -0.19078   2.67437
   R14        2.70492  -0.00567  -0.04550   0.01117  -0.03177   2.67316
   R15        2.88437   0.00674   0.01150   0.00382   0.01705   2.90141
   R16        2.70726  -0.00609  -0.04405   0.00752  -0.03321   2.67404
   R17        2.88479   0.00716   0.01182   0.00880   0.02327   2.90806
   R18        2.69660  -0.00336  -0.00063  -0.00031  -0.00069   2.69591
   R19        2.80570   0.00871   0.02550   0.02538   0.05159   2.85729
   R20        2.66251  -0.00360  -0.01336   0.01991   0.00503   2.66755
   R21        2.91398  -0.00220  -0.00596  -0.00470  -0.01099   2.90299
   R22        2.69110  -0.00175  -0.00509   0.00876   0.00325   2.69435
   R23        2.92031  -0.00146  -0.00043  -0.00936  -0.00967   2.91064
   R24        2.81077   0.00894   0.02923   0.02232   0.05189   2.86265
   R25        2.72068   0.00983   0.03129   0.00750   0.03840   2.75908
   R26        2.60071  -0.01122  -0.04022   0.01152  -0.03051   2.57020
   R27        2.60151  -0.01129  -0.04374   0.01274  -0.03197   2.56954
   R28        2.77023   0.00371   0.02949  -0.01954   0.00952   2.77975
   R29        2.61160  -0.00932  -0.03579  -0.00431  -0.04141   2.57019
   R30        2.69868   0.00980   0.03235   0.01641   0.04711   2.74579
   R31        2.62117  -0.01203  -0.04650  -0.00288  -0.04996   2.57120
   R32        2.70887   0.01098   0.04423   0.00938   0.05165   2.76052
   R33        2.64310  -0.01835  -0.06962  -0.00756  -0.07758   2.56552
   R34        2.70425   0.01418   0.03632   0.01657   0.05205   2.75630
   R35        2.62496  -0.01091  -0.04071  -0.00790  -0.04923   2.57573
   R36        2.72563   0.01234   0.03787   0.00600   0.04323   2.76887
    A1        2.10555  -0.00011   0.00009  -0.00961  -0.00944   2.09611
    A2        1.87223   0.00005   0.00330  -0.00817  -0.00523   1.86700
    A3        1.85152  -0.00152  -0.01288   0.01086  -0.00219   1.84933
    A4        2.08659   0.00028  -0.00327   0.00831   0.00504   2.09163
    A5        1.84195   0.00026  -0.00342   0.01686   0.01307   1.85502
    A6        1.89128  -0.00098   0.00670  -0.02039  -0.01342   1.87786
    A7        2.09031   0.00026   0.00127   0.00278   0.00409   2.09440
    A8        1.84935  -0.00068  -0.01175   0.01680   0.00476   1.85411
    A9        1.86795   0.00042   0.00387  -0.00703  -0.00336   1.86459
   A10        2.10283  -0.00046   0.00066  -0.00663  -0.00608   2.09675
   A11        1.84687  -0.00034  -0.00733   0.01181   0.00433   1.85120
   A12        1.86593   0.00134   0.00735  -0.00220   0.00495   1.87088
   A13        2.08643   0.00014  -0.00181   0.00677   0.00464   2.09107
   A14        1.84797  -0.00091  -0.01180   0.01436   0.00263   1.85060
   A15        1.87629   0.00082   0.00941  -0.00869   0.00044   1.87673
   A16        2.09465  -0.00011   0.00309  -0.00159   0.00174   2.09639
   A17        1.86117   0.00188   0.01159  -0.00083   0.01017   1.87135
   A18        1.85842  -0.00242  -0.01908   0.01255  -0.00642   1.85200
   A19        2.03840   0.00383   0.02654   0.02077   0.04657   2.08497
   A20        1.80652   0.00267   0.00167   0.03809   0.03819   1.84471
   A21        1.81625   0.00215   0.03438   0.00236   0.03300   1.84925
   A22        2.03403   0.00423   0.02336   0.03092   0.05327   2.08731
   A23        1.84213   0.00369   0.03003  -0.00042   0.02787   1.87001
   A24        1.78830   0.00099   0.01271   0.03457   0.04262   1.83093
   A25        2.16102  -0.00262  -0.01704  -0.03019  -0.04757   2.11345
   A26        1.91353  -0.00028  -0.00608  -0.02339  -0.03015   1.88338
   A27        1.85061   0.00013   0.00111   0.00650   0.00561   1.85622
   A28        2.08217  -0.00093  -0.00482   0.00473  -0.00101   2.08116
   A29        1.88345  -0.00032  -0.00060  -0.01265  -0.01245   1.87100
   A30        1.85620  -0.00003  -0.00832   0.00755  -0.00069   1.85551
   A31        2.08004  -0.00081  -0.00677   0.01276   0.00495   2.08499
   A32        1.88071   0.00190   0.01089  -0.01175  -0.00077   1.87994
   A33        1.85834  -0.00212  -0.02009   0.00983  -0.00908   1.84925
   A34        2.16238  -0.00311  -0.01580  -0.03308  -0.04889   2.11349
   A35        1.88949  -0.00128  -0.02481   0.00880  -0.01674   1.87274
   A36        1.86449   0.00158   0.01192  -0.00742   0.00307   1.86756
   A37        1.89612  -0.00531  -0.01651  -0.01859  -0.03406   1.86206
   A38        1.87437   0.00306   0.00856   0.00998   0.01837   1.89274
   A39        1.87207   0.00012  -0.01170   0.01801   0.00579   1.87786
   A40        1.92634  -0.00328  -0.00842  -0.02734  -0.03541   1.89093
   A41        1.93551  -0.00008  -0.00787  -0.01292  -0.01900   1.91651
   A42        1.89180   0.00217   0.00781   0.01160   0.01835   1.91015
   A43        1.91159   0.00303   0.02001   0.00132   0.02028   1.93186
   A44        1.90265  -0.00489  -0.02006  -0.00848  -0.02747   1.87519
   A45        1.91968   0.00032  -0.00652  -0.00035  -0.00639   1.91329
   A46        1.86790  -0.00165   0.00361  -0.00518  -0.00197   1.86593
   A47        1.92149   0.00165   0.01017  -0.00366   0.00667   1.92815
   A48        1.89356   0.00133   0.00612   0.00421   0.01013   1.90370
   A49        1.90553   0.00257   0.00611  -0.00045   0.00603   1.91155
   A50        1.89131  -0.00266  -0.00502  -0.01735  -0.02158   1.86973
   A51        1.90033  -0.00137  -0.01582   0.01069  -0.00573   1.89460
   A52        1.93278  -0.00511  -0.00966  -0.03691  -0.04517   1.88762
   A53        1.93347   0.00195  -0.00285  -0.00548  -0.00790   1.92558
   A54        1.88922   0.00219   0.00571   0.01513   0.01999   1.90921
   A55        1.89109  -0.00287   0.00393  -0.01863  -0.01541   1.87568
   A56        1.92910   0.00068   0.00060  -0.00302  -0.00179   1.92731
   A57        1.91974   0.00065  -0.00659   0.00713   0.00057   1.92031
   A58        1.91524  -0.00009  -0.00146  -0.00682  -0.00770   1.90754
   A59        1.87162  -0.00159   0.00668  -0.01430  -0.00757   1.86405
   A60        1.87830   0.00060  -0.00673   0.01971   0.01213   1.89042
   A61        1.87634   0.00267   0.01010   0.00510   0.01512   1.89146
   A62        1.90200  -0.00400  -0.00476  -0.02437  -0.02911   1.87289
   A63        1.89034   0.00113   0.00378   0.00714   0.01079   1.90112
   A64        1.86731  -0.00111   0.00471  -0.00504  -0.00081   1.86650
   A65        1.88002   0.00175   0.00507   0.01010   0.01513   1.89515
   A66        1.88806   0.00071  -0.00328   0.01803   0.01476   1.90282
   A67        1.87783   0.00368   0.01327   0.01088   0.02410   1.90193
   A68        1.87063  -0.00284  -0.00195  -0.00580  -0.00794   1.86269
   A69        1.88789   0.00023  -0.00309   0.00563   0.00258   1.89047
   A70        1.90849   0.00294   0.01394  -0.00783   0.00610   1.91459
   A71        1.88863  -0.00188  -0.00196  -0.00818  -0.01021   1.87842
   A72        1.91363  -0.00052  -0.00384   0.00334  -0.00086   1.91278
    D1        0.00180   0.00000  -0.00578  -0.00187  -0.00764  -0.00584
    D2        2.13532  -0.00090  -0.00194  -0.00920  -0.01103   2.12429
    D3       -2.11745   0.00211   0.00891  -0.00256   0.00661  -2.11084
    D4        0.01608   0.00120   0.01275  -0.00990   0.00322   0.01930
    D5       -0.00491   0.00017   0.00337   0.00713   0.01041   0.00549
    D6       -2.11619   0.00190   0.01702  -0.00797   0.00913  -2.10706
    D7        2.12437  -0.00116  -0.00348  -0.00127  -0.00514   2.11923
    D8        0.01309   0.00057   0.01017  -0.01637  -0.00641   0.00668
    D9        0.09304   0.00015  -0.00112   0.00508   0.00407   0.09711
   D10        2.16046  -0.00158  -0.01956   0.00767  -0.01172   2.14874
   D11       -2.17889   0.00123   0.00509   0.01503   0.02029  -2.15860
   D12       -0.11146  -0.00050  -0.01335   0.01762   0.00450  -0.10696
   D13        0.00062   0.00003   0.00472  -0.00303   0.00176   0.00238
   D14        2.11172   0.00020   0.00087   0.00355   0.00406   2.11579
   D15       -2.10840   0.00032   0.00596  -0.01446  -0.00809  -2.11649
   D16        0.00270   0.00049   0.00211  -0.00789  -0.00579  -0.00309
   D17       -0.11568  -0.00106  -0.01704   0.01243  -0.00478  -0.12047
   D18       -2.13522  -0.00010   0.00063  -0.00445  -0.00345  -2.13868
   D19        2.13882  -0.00116  -0.01906   0.02084   0.00143   2.14025
   D20        0.11928  -0.00021  -0.00139   0.00396   0.00276   0.12204
   D21        0.00008  -0.00024  -0.00133   0.00267   0.00135   0.00143
   D22        2.11489   0.00097   0.00274   0.00530   0.00754   2.12243
   D23       -2.10174   0.00013   0.01032  -0.01589  -0.00504  -2.10678
   D24        0.01307   0.00134   0.01439  -0.01326   0.00115   0.01422
   D25       -0.11609   0.00020   0.00109   0.00825   0.00925  -0.10683
   D26       -2.17077  -0.00132  -0.01353   0.00818  -0.00535  -2.17612
   D27        2.13319   0.00036  -0.00234   0.01778   0.01512   2.14831
   D28        0.07850  -0.00116  -0.01696   0.01771   0.00052   0.07903
   D29       -0.00317   0.00041  -0.00106   0.00252   0.00138  -0.00179
   D30        2.11527   0.00083   0.00035   0.00754   0.00737   2.12264
   D31       -2.10862   0.00003   0.00207  -0.00694  -0.00448  -2.11310
   D32        0.00981   0.00045   0.00348  -0.00192   0.00152   0.01133
   D33       -2.17975  -0.00029  -0.00720   0.01119   0.00435  -2.17540
   D34       -0.09619  -0.00033  -0.00500   0.00592   0.00079  -0.09540
   D35        0.08191  -0.00023  -0.00643   0.00921   0.00278   0.08469
   D36        2.16548  -0.00027  -0.00422   0.00393  -0.00079   2.16469
   D37        0.00557  -0.00038   0.00006  -0.00738  -0.00723  -0.00167
   D38        2.11821   0.00002   0.00158   0.00109   0.00220   2.12041
   D39       -2.09873   0.00006   0.00926  -0.02412  -0.01444  -2.11317
   D40        0.01391   0.00045   0.01078  -0.01564  -0.00501   0.00890
   D41       -2.14114  -0.00018  -0.00391  -0.00242  -0.00596  -2.14710
   D42       -0.09597   0.00050   0.00358  -0.00412  -0.00066  -0.09663
   D43        0.10769  -0.00008  -0.00771   0.00955   0.00166   0.10935
   D44        2.15286   0.00059  -0.00022   0.00785   0.00696   2.15982
   D45        0.09273   0.00049  -0.00104   0.01181   0.01111   0.10384
   D46        2.12802   0.00026  -0.00605   0.02364   0.01725   2.14528
   D47       -2.16329   0.00096  -0.00021   0.00639   0.00667  -2.15662
   D48       -0.12799   0.00073  -0.00522   0.01821   0.01281  -0.11518
   D49       -0.00204  -0.00000  -0.00125   0.00554   0.00456   0.00251
   D50       -1.97275  -0.00583  -0.04590  -0.05256  -0.10160  -2.07435
   D51        1.98163   0.00623   0.05293   0.04347   0.09989   2.08153
   D52        0.01093   0.00040   0.00828  -0.01464  -0.00626   0.00467
   D53       -0.09757   0.00351   0.02806   0.03241   0.06179  -0.03578
   D54        2.10295   0.00172   0.00357   0.00100   0.00908   2.11203
   D55       -2.07575  -0.00305  -0.00678  -0.02592  -0.03673  -2.11248
   D56        0.12477  -0.00484  -0.03126  -0.05734  -0.08944   0.03533
   D57       -0.07723  -0.00093  -0.01446   0.00603  -0.00879  -0.08602
   D58       -2.17364  -0.00161  -0.01334   0.01493   0.00009  -2.17355
   D59        2.06171   0.00553   0.02987   0.04756   0.08122   2.14292
   D60       -0.03471   0.00485   0.03099   0.05647   0.09010   0.05539
   D61        0.10015  -0.00345  -0.02668  -0.03912  -0.06738   0.03276
   D62       -2.10414  -0.00088  -0.00497   0.00477  -0.00484  -2.10898
   D63        2.10132   0.00368   0.02693  -0.00251   0.02809   2.12941
   D64       -0.10297   0.00624   0.04864   0.04138   0.09063  -0.01233
   D65        2.15747   0.00146   0.00102   0.00905   0.01238   2.16985
   D66        0.06072   0.00094   0.00201   0.02089   0.02376   0.08448
   D67        0.02040  -0.00540  -0.04237  -0.04186  -0.08615  -0.06575
   D68       -2.07635  -0.00591  -0.04138  -0.03002  -0.07477  -2.15112
   D69       -0.10122   0.00381   0.03037   0.03688   0.06651  -0.03471
   D70       -2.21969   0.00480   0.04577   0.03405   0.07867  -2.14102
   D71        2.12988   0.00121   0.00674  -0.01778  -0.00999   2.11989
   D72        0.01141   0.00220   0.02214  -0.02061   0.00217   0.01358
   D73        0.15954  -0.00432  -0.03612  -0.02978  -0.06568   0.09386
   D74        2.26069  -0.00509  -0.04392  -0.03460  -0.07830   2.18239
   D75       -2.21126  -0.00075  -0.00945   0.02298   0.01295  -2.19831
   D76       -0.11011  -0.00152  -0.01725   0.01816   0.00032  -0.10979
   D77       -0.00080  -0.00000  -0.00070   0.00287   0.00231   0.00151
   D78       -2.11829   0.00182   0.02208  -0.00956   0.01170  -2.10658
   D79        2.13124  -0.00112  -0.01213  -0.00442  -0.01562   2.11561
   D80        0.01375   0.00071   0.01064  -0.01685  -0.00623   0.00752
   D81        0.09612  -0.00140  -0.01640   0.01655  -0.00036   0.09576
   D82        2.12296  -0.00073  -0.01436   0.02561   0.01068   2.13364
   D83       -2.15732  -0.00003  -0.00449   0.01389   0.00918  -2.14814
   D84       -0.13048   0.00064  -0.00245   0.02294   0.02022  -0.11026
   D85        0.10129  -0.00383  -0.02997  -0.03805  -0.06757   0.03372
   D86       -2.10995  -0.00086   0.00897  -0.01424  -0.00658  -2.11654
   D87        2.22995  -0.00363  -0.03740  -0.03663  -0.07282   2.15713
   D88        0.01871  -0.00066   0.00154  -0.01281  -0.01184   0.00687
   D89        2.13855   0.00051  -0.01071   0.02998   0.01890   2.15745
   D90        0.11210  -0.00062  -0.01175   0.00657  -0.00560   0.10650
   D91       -0.11190   0.00167   0.00376   0.01540   0.01919  -0.09271
   D92       -2.13835   0.00054   0.00271  -0.00801  -0.00531  -2.14366
   D93       -0.17598   0.00388   0.02290   0.04456   0.06728  -0.10869
   D94       -2.28065   0.00448   0.02815   0.04939   0.07723  -2.20342
   D95        2.18902   0.00007  -0.00806   0.00244  -0.00492   2.18410
   D96        0.08435   0.00066  -0.00281   0.00727   0.00503   0.08938
   D97       -1.94555   0.00212   0.02748   0.01605   0.04218  -1.90337
   D98        0.17729   0.00139   0.01759  -0.00938   0.00870   0.18599
   D99        0.07548   0.00307   0.02256   0.02776   0.04932   0.12480
   D100       2.19832   0.00234   0.01268   0.00232   0.01584   2.21417
   D101       1.89564  -0.00372  -0.01235  -0.00972  -0.02183   1.87381
   D102      -0.19511   0.00021   0.00373   0.00009   0.00343  -0.19168
   D103      -0.13976   0.00085   0.00847  -0.00226   0.00565  -0.13411
   D104      -2.23051   0.00478   0.02455   0.00756   0.03091  -2.19960
   D105       1.95068  -0.00391  -0.02102  -0.03341  -0.05397   1.89671
   D106      -0.11109  -0.00138  -0.00931  -0.01842  -0.02819  -0.13928
   D107      -0.16652  -0.00121  -0.01080   0.00093  -0.01035  -0.17686
   D108      -2.22829   0.00132   0.00091   0.01591   0.01544  -2.21286
   D109      -1.89750  -0.00113  -0.00995  -0.00354  -0.01311  -1.91061
   D110       0.17538   0.00062   0.00713  -0.00847  -0.00085   0.17453
   D111       0.19867  -0.00026  -0.00195  -0.00738  -0.00894   0.18973
   D112       2.27155   0.00149   0.01513  -0.01232   0.00332   2.27487
   D113       1.87540  -0.00029   0.01736  -0.01262   0.00466   1.88005
   D114      -0.14007   0.00101   0.01438  -0.01430   0.00002  -0.14005
   D115      -0.16334   0.00000   0.00405  -0.00677  -0.00272  -0.16606
   D116      -2.17881   0.00131   0.00107  -0.00845  -0.00736  -2.18616
   D117      -1.95151   0.00062   0.02019   0.01076   0.03040  -1.92111
   D118       0.17114   0.00128   0.01439  -0.00911   0.00555   0.17670
   D119       0.11921   0.00140   0.01549   0.00635   0.02238   0.14159
   D120       2.24186   0.00206   0.00969  -0.01352  -0.00246   2.23940
   D121       1.95784  -0.00460  -0.01741  -0.04142  -0.05771   1.90014
   D122      -0.07325  -0.00299  -0.02082  -0.03180  -0.05131  -0.12455
   D123      -0.16439  -0.00091  -0.00741  -0.00219  -0.00989  -0.17428
   D124      -2.19548   0.00070  -0.01082   0.00743  -0.00349  -2.19897
   D125      -1.90852   0.00017   0.00217  -0.00157   0.00027  -1.90826
   D126       0.15096  -0.00046   0.00051  -0.00681  -0.00648   0.14448
   D127       0.20195  -0.00040   0.00138  -0.01256  -0.01105   0.19091
   D128       2.26144  -0.00103  -0.00028  -0.01779  -0.01779   2.24364
   D129       1.89463  -0.00210   0.00776  -0.01981  -0.01264   1.88198
   D130      -0.15814   0.00058   0.00603   0.00240   0.00781  -0.15033
   D131      -0.19286   0.00062   0.00671   0.00066   0.00717  -0.18569
   D132      -2.24562   0.00330   0.00498   0.02286   0.02763  -2.21800
   D133      -1.87195  -0.00236  -0.01444  -0.00693  -0.02111  -1.89305
   D134       0.14915  -0.00054  -0.00776   0.01123   0.00370   0.15285
   D135       0.16432  -0.00073  -0.00294  -0.01017  -0.01323   0.15109
   D136       2.18542   0.00108   0.00375   0.00798   0.01158   2.19700
   D137       1.87018   0.00042   0.01548  -0.00529   0.00990   1.88008
   D138      -0.19788   0.00127   0.01183   0.00735   0.01921  -0.17868
   D139      -0.14262   0.00046   0.00903  -0.01376  -0.00496  -0.14757
   D140      -2.21067   0.00131   0.00538  -0.00113   0.00435  -2.20633
   D141      -1.87354  -0.00319  -0.01836  -0.00711  -0.02520  -1.89875
   D142       0.20678  -0.00105  -0.00490  -0.01949  -0.02436   0.18242
   D143       0.14663  -0.00024  -0.00544   0.00542   0.00011   0.14673
   D144       2.22695   0.00190   0.00802  -0.00695   0.00095   2.22790
         Item               Value     Threshold  Converged?
 Maximum Force            0.024404     0.000450     NO 
 RMS     Force            0.003801     0.000300     NO 
 Maximum Displacement     0.142784     0.001800     NO 
 RMS     Displacement     0.019519     0.001200     NO 
 Predicted change in Energy=-1.485297D-02
 GradGradGradGradGradGradGradGradGradGradGradGradGradGradGradGradGradGrad

                          Input orientation:                          
 ---------------------------------------------------------------------
 Center     Atomic      Atomic             Coordinates (Angstroms)
 Number     Number       Type             X           Y           Z
 ---------------------------------------------------------------------
      1          6           0       -1.045956   -0.025978    2.197056
      2          6           0       -1.510774   -1.246001    1.629584
      3          6           0       -2.415268   -1.216825    0.531125
      4          6           0       -2.851661    0.032932   -0.000503
      5          6           0       -2.383475    1.251172    0.563663
      6          6           0       -1.479027    1.220627    1.662771
      7          6           0        1.363250    0.732801   -0.046838
      8          6           0        1.380729   -0.682105   -0.022969
      9          6           0        0.585758   -1.406410   -0.942616
     10          6           0       -0.204756   -0.734638   -1.921920
     11          6           0       -0.223429    0.676681   -1.943256
     12          6           0        0.547918    1.402701   -0.988903
     13          6           0       -0.257145   -2.018099    1.179732
     14          6           0        0.877997   -1.118617    1.364424
     15          6           0       -0.365067   -2.275887   -0.151336
     16          6           0       -1.729008   -1.964605   -0.605813
     17          6           0        0.481247   -0.029029    2.074555
     18          6           0        0.853630    1.165225    1.335419
     19          6           0       -0.416267    2.274442   -0.210965
     20          6           0       -0.232926    1.974019    1.206810
     21          6           0       -1.696041    2.011767   -0.580143
     22          6           0       -1.681795    1.129145   -1.741263
     23          6           0       -1.659801   -1.182363   -1.716282
     24          6           0       -2.444191    0.031308   -1.474192
 ---------------------------------------------------------------------
                    Distance matrix (angstroms):
                    1          2          3          4          5
     1  C    0.000000
     2  C    1.423565   0.000000
     3  C    2.463425   1.423226   0.000000
     4  C    2.844874   2.467961   1.426521   0.000000
     5  C    2.467397   2.851958   2.468417   1.421825   0.000000
     6  C    1.423740   2.467055   2.845759   2.461954   1.423727
     7  C    3.378621   3.871183   4.290954   4.272872   3.831366
     8  C    3.353776   3.377825   3.873312   4.292425   4.272111
     9  C    3.798108   3.322257   3.348733   3.843844   4.260043
    10  C    4.263306   3.818423   3.337109   3.359630   3.855954
    11  C    4.279307   4.256659   3.809474   3.331112   3.358642
    12  C    3.838215   4.255621   4.237084   3.796096   3.320616
    13  C    2.371859   1.539509   2.391700   3.511581   3.948285
    14  C    2.364049   2.406816   3.398475   4.135147   4.110270
    15  C    3.322747   2.354779   2.406386   3.396550   4.126178
    16  C    3.475760   2.358180   1.524059   2.370001   3.483851
    17  C    1.532111   2.376377   3.490392   3.926573   3.482577
    18  C    2.402043   3.389831   4.123925   4.098287   3.328941
    19  C    3.389249   4.120568   4.090924   3.316595   2.348838
    20  C    2.375204   3.490009   3.924367   3.476089   2.358179
    21  C    3.505403   3.940846   3.489415   2.363732   1.536021
    22  C    4.153186   4.127126   3.347433   2.366541   2.412452
    23  C    4.126530   3.349787   2.371235   2.416893   3.412322
    24  C    3.928920   3.483706   2.362196   1.528985   2.375838
                    6          7          8          9         10
     6  C    0.000000
     7  C    3.352503   0.000000
     8  C    3.826266   1.415215   0.000000
     9  C    4.237063   2.446045   1.415043   0.000000
    10  C    4.277480   2.850956   2.474376   1.426614   0.000000
    11  C    3.856920   2.473277   2.847302   2.448538   1.411604
    12  C    3.342609   1.414573   2.443976   2.809748   2.450563
    13  C    3.495092   3.420176   2.431872   2.364108   3.357121
    14  C    3.334162   2.377999   1.538877   2.343216   3.481358
    15  C    4.093592   3.471340   2.367366   1.512013   2.352896
    16  C    3.918502   4.141317   3.413938   2.404820   2.359724
    17  C    2.360907   2.420460   2.373854   3.318346   4.115860
    18  C    2.356166   1.535363   2.352803   3.445941   3.916621
    19  C    2.398097   2.360143   3.464926   3.884333   3.467949
    20  C    1.525866   2.379083   3.342340   4.088714   4.138426
    21  C    2.388234   3.358486   4.127215   4.125764   3.401035
    22  C    3.411294   3.507201   3.951229   3.494092   2.384946
    23  C    4.150306   3.948890   3.516019   2.385643   1.536196
    24  C    3.490925   4.126262   4.152713   3.395615   2.408776
                   11         12         13         14         15
    11  C    0.000000
    12  C    1.425788   0.000000
    13  C    4.125050   4.129526   0.000000
    14  C    3.921350   3.464700   1.460043   0.000000
    15  C    3.456689   3.881633   1.360090   2.276403   0.000000
    16  C    3.321432   4.082879   2.314608   3.375500   1.470980
    17  C    4.139735   3.382170   2.302678   1.359742   3.274020
    18  C    3.485462   2.356338   3.375146   2.284156   3.941690
    19  C    2.364500   1.514851   4.515005   3.958512   4.551009
    20  C    3.406772   2.399433   3.992283   3.289892   4.463600
    21  C    2.410211   2.360805   4.626814   4.495144   4.509917
    22  C    1.540245   2.369071   4.524045   4.609801   3.981945
    23  C    2.360239   3.476444   3.324574   3.991896   2.306770
    24  C    2.359727   3.327003   4.003318   4.518518   3.375775
                   16         17         18         19         20
    16  C    0.000000
    17  C    3.976939   0.000000
    18  C    4.498248   1.453009   0.000000
    19  C    4.455189   3.366766   2.287860   0.000000
    20  C    4.586569   2.296786   1.360622   1.460806   0.000000
    21  C    3.976591   3.994103   3.299520   1.357613   2.309834
    22  C    3.295871   4.536583   3.986935   2.292396   3.391779
    23  C    1.360085   4.503855   4.597976   3.970121   4.532459
    24  C    2.291121   4.599504   4.478316   3.277175   3.981406
                   21         22         23         24
    21  C    0.000000
    22  C    1.458569   0.000000
    23  C    3.390368   2.311749   0.000000
    24  C    2.298102   1.363020   1.465222   0.000000
 Stoichiometry    C24
 Framework group  C1[X(C24)]
 Deg. of freedom    66
 Full point group                 C1      NOp   1
 Largest Abelian subgroup         C1      NOp   1
 Largest concise Abelian subgroup C1      NOp   1
                         Standard orientation:                         
 ---------------------------------------------------------------------
 Center     Atomic      Atomic             Coordinates (Angstroms)
 Number     Number       Type             X           Y           Z
 ---------------------------------------------------------------------
      1          6           0        1.364118    0.380375    1.642545
      2          6           0        1.007067   -0.997683    1.640011
      3          6           0       -0.365599   -1.373609    1.633507
      4          6           0       -1.379831   -0.370491    1.626602
      5          6           0       -1.022646    1.005736    1.624437
      6          6           0        0.350858    1.380484    1.631394
      7          6           0        0.972516    1.048257   -1.646173
      8          6           0        1.402444   -0.300065   -1.641256
      9          6           0        0.442620   -1.339512   -1.616052
     10          6           0       -0.954712   -1.052607   -1.635468
     11          6           0       -1.382487    0.292617   -1.637840
     12          6           0       -0.412058    1.337084   -1.622697
     13          6           0        1.663553   -1.611428    0.390038
     14          6           0        2.240590   -0.504277   -0.366912
     15          6           0        0.689461   -2.170382   -0.377138
     16          6           0       -0.570424   -2.216965    0.380689
     17          6           0        2.211381    0.625135    0.389708
     18          6           0        1.556008    1.674873   -0.371721
     19          6           0       -0.677482    2.170479   -0.385856
     20          6           0        0.565220    2.226787    0.379960
     21          6           0       -1.659959    1.607415    0.363018
     22          6           0       -2.256503    0.508623   -0.388124
     23          6           0       -1.568490   -1.698367   -0.384001
     24          6           0       -2.215646   -0.622477    0.371329
 ---------------------------------------------------------------------
 Rotational constants (GHZ):      0.5452827      0.5412536      0.4808754
 Standard basis: 6-31G(d,p) (6D, 7F)
 There are   360 symmetry adapted cartesian basis functions of A   symmetry.
 There are   360 symmetry adapted basis functions of A   symmetry.
   360 basis functions,   672 primitive gaussians,   360 cartesian basis functions
    72 alpha electrons       72 beta electrons
       nuclear repulsion energy      1909.0657021163 Hartrees.
 NAtoms=   24 NActive=   24 NUniq=   24 SFac= 1.00D+00 NAtFMM=   60 NAOKFM=F Big=F
 Integral buffers will be    131072 words long.
 Raffenetti 2 integral format.
 Two-electron integral symmetry is turned on.
 One-electron integrals computed using PRISM.
 NBasis=   360 RedAO= T EigKep=  5.37D-04  NBF=   360
 NBsUse=   360 1.00D-06 EigRej= -1.00D+00 NBFU=   360
 Initial guess from the checkpoint file:  "/scratch/tmp/3419169/Gau-146785.chk"
 B after Tr=     0.000000    0.000000   -0.000000
         Rot=    0.996585    0.013367   -0.034944   -0.073614 Ang=   9.47 deg.
 ExpMin= 1.69D-01 ExpMax= 3.05D+03 ExpMxC= 4.57D+02 IAcc=1 IRadAn=         1 AccDes= 0.00D+00
 Harris functional with IExCor=  402 and IRadAn=       1 diagonalized for initial guess.
 HarFok:  IExCor=  402 AccDes= 0.00D+00 IRadAn=         1 IDoV= 1 UseB2=F ITyADJ=14
 ICtDFT=  3500011 ScaDFX=  1.000000  1.000000  1.000000  1.000000
 FoFCou: FMM=F IPFlag=           0 FMFlag=      100000 FMFlg1=           0
         NFxFlg=           0 DoJE=T BraDBF=F KetDBF=T FulRan=T
         wScrn=  0.000000 ICntrl=     500 IOpCl=  0 I1Cent=   200000004 NGrid=           0
         NMat0=    1 NMatS0=      1 NMatT0=    0 NMatD0=    1 NMtDS0=    0 NMtDT0=    0
 Petite list used in FoFCou.
 Requested convergence on RMS density matrix=1.00D-08 within  64 cycles.
 Requested convergence on MAX density matrix=1.00D-06.
 Requested convergence on             energy=1.00D-06.
 No special actions if energy rises.
 Integral accuracy reduced to 1.0D-05 until final iterations.
 Initial convergence to 1.0D-05 achieved.  Increase integral accuracy.
 SCF Done:  E(RB3LYP) =  -913.838700549     A.U. after   19 cycles
            NFock= 19  Conv=0.29D-08     -V/T= 2.0088
 QCSCF skips out because SCF is already converged.
 Calling FoFJK, ICntrl=      2127 FMM=F ISym2X=0 I1Cent= 0 IOpClX= 0 NMat=1 NMatS=1 NMatT=0.
 ***** Axes restored to original set *****
 -------------------------------------------------------------------
 Center     Atomic                   Forces (Hartrees/Bohr)
 Number     Number              X              Y              Z
 -------------------------------------------------------------------
      1        6          -0.000234429   -0.001699713   -0.000373223
      2        6          -0.001277750    0.000302857   -0.000381356
      3        6          -0.001516848    0.001659546    0.000732938
      4        6           0.000078334   -0.000769217    0.000346496
      5        6          -0.000881589    0.000341988    0.000722756
      6        6          -0.001412030   -0.000340644    0.000444871
      7        6          -0.002372082    0.005040368    0.004803181
      8        6          -0.002696910   -0.005291266    0.004799669
      9        6           0.003701822   -0.004315519   -0.009336151
     10        6           0.000637950   -0.005037315    0.001419608
     11        6          -0.000835163    0.004728340    0.000837015
     12        6           0.002045580    0.004642576   -0.010668306
     13        6           0.001189365    0.003580358    0.003810593
     14        6           0.004484727   -0.005830235   -0.000515002
     15        6          -0.005931688   -0.003692207   -0.003854596
     16        6           0.002962582   -0.003264690    0.004120993
     17        6          -0.002197493    0.001048759    0.003103016
     18        6           0.007469688    0.002708673    0.000908765
     19        6           0.006427390    0.004642502    0.001514639
     20        6          -0.003078684    0.000791290    0.000580714
     21        6          -0.008731106   -0.001867891   -0.000195841
     22        6           0.004491053    0.000070366   -0.001195008
     23        6           0.000589608    0.004645053   -0.002084197
     24        6          -0.002912327   -0.002093980    0.000458425
 -------------------------------------------------------------------
 Cartesian Forces:  Max     0.010668306 RMS     0.003568830

 GradGradGradGradGradGradGradGradGradGradGradGradGradGradGradGradGradGrad
 Berny optimization.
 Using GEDIIS/GDIIS optimizer.
 FormGI is forming the generalized inverse of G from B-inverse, IUseBI=4.
 Internal  Forces:  Max     0.008546089 RMS     0.001291376
 Search for a local minimum.
 Step number   3 out of a maximum of  144
 All quantities printed in internal units (Hartrees-Bohrs-Radians)
 Mixed Optimization -- RFO/linear search
 Update second derivatives using D2CorX and points    2    3
 DE= -1.25D-02 DEPred=-1.49D-02 R= 8.42D-01
 TightC=F SS=  1.41D+00  RLast= 4.94D-01 DXNew= 8.4853D-01 1.4822D+00
 Trust test= 8.42D-01 RLast= 4.94D-01 DXMaxT set to 8.49D-01
 ITU=  1  1  0
 Use linear search instead of GDIIS.
     Eigenvalues ---    0.03725   0.03967   0.04003   0.04371   0.04473
     Eigenvalues ---    0.04493   0.04980   0.05086   0.05130   0.05770
     Eigenvalues ---    0.05924   0.06131   0.06285   0.06850   0.07148
     Eigenvalues ---    0.07322   0.07404   0.08207   0.08273   0.08359
     Eigenvalues ---    0.08475   0.08493   0.08600   0.09281   0.09424
     Eigenvalues ---    0.09474   0.09697   0.09982   0.11809   0.12179
     Eigenvalues ---    0.16087   0.16344   0.17340   0.17514   0.17883
     Eigenvalues ---    0.18014   0.18511   0.21555   0.21980   0.22238
     Eigenvalues ---    0.22946   0.25117   0.27444   0.28361   0.29228
     Eigenvalues ---    0.30614   0.31404   0.32067   0.32813   0.33290
     Eigenvalues ---    0.34987   0.35630   0.36015   0.36639   0.37387
     Eigenvalues ---    0.37687   0.38062   0.38615   0.39414   0.39537
     Eigenvalues ---    0.40773   0.41421   0.41898   0.42000   0.42378
     Eigenvalues ---    0.44651
 RFO step:  Lambda=-2.01379693D-03 EMin= 3.72528380D-02
 Quartic linear search produced a step of -0.02641.
 Iteration  1 RMS(Cart)=  0.00587387 RMS(Int)=  0.00012624
 Iteration  2 RMS(Cart)=  0.00006091 RMS(Int)=  0.00009274
 Iteration  3 RMS(Cart)=  0.00000001 RMS(Int)=  0.00009274
 Variable       Old X    -DE/DX   Delta X   Delta X   Delta X     New X
                                 (Linear)    (Quad)   (Total)
    R1        2.69015   0.00009  -0.00022  -0.00170  -0.00196   2.68819
    R2        2.69048   0.00166  -0.00022   0.00155   0.00128   2.69176
    R3        2.89527   0.00137   0.00013   0.00317   0.00320   2.89847
    R4        2.68951   0.00011   0.00035  -0.00219  -0.00192   2.68759
    R5        2.90925   0.00115  -0.00052   0.00284   0.00232   2.91157
    R6        2.69573  -0.00039  -0.00002  -0.00114  -0.00122   2.69452
    R7        2.88005   0.00128  -0.00045   0.00428   0.00381   2.88386
    R8        2.68686   0.00036  -0.00007   0.00044   0.00031   2.68717
    R9        2.88936   0.00104   0.00018   0.00147   0.00158   2.89094
   R10        2.69045   0.00119   0.00021  -0.00026  -0.00016   2.69030
   R11        2.90266   0.00034  -0.00043   0.00307   0.00259   2.90525
   R12        2.88347   0.00241  -0.00005   0.00538   0.00534   2.88881
   R13        2.67437   0.00855   0.00504   0.01823   0.02338   2.69775
   R14        2.67316   0.00531   0.00084   0.01051   0.01148   2.68463
   R15        2.90141   0.00042  -0.00045  -0.00130  -0.00175   2.89967
   R16        2.67404   0.00430   0.00088   0.00834   0.00935   2.68339
   R17        2.90806   0.00025  -0.00061  -0.00307  -0.00371   2.90435
   R18        2.69591  -0.00010   0.00002   0.00124   0.00138   2.69729
   R19        2.85729   0.00261  -0.00136   0.01586   0.01472   2.87201
   R20        2.66755   0.00617  -0.00013   0.01556   0.01549   2.68303
   R21        2.90299   0.00081   0.00029  -0.00010   0.00018   2.90317
   R22        2.69435   0.00048  -0.00009   0.00160   0.00164   2.69599
   R23        2.91064   0.00076   0.00026  -0.00198  -0.00177   2.90887
   R24        2.86265   0.00175  -0.00137   0.01438   0.01325   2.87590
   R25        2.75908   0.00004  -0.00101   0.00207   0.00097   2.76005
   R26        2.57020   0.00439   0.00081   0.00946   0.01031   2.58050
   R27        2.56954   0.00457   0.00084   0.01018   0.01097   2.58051
   R28        2.77975  -0.00316  -0.00025  -0.00492  -0.00517   2.77458
   R29        2.57019   0.00369   0.00109   0.00385   0.00484   2.57503
   R30        2.74579   0.00354  -0.00124   0.01399   0.01271   2.75850
   R31        2.57120   0.00347   0.00132   0.00508   0.00633   2.57753
   R32        2.76052   0.00171  -0.00136   0.00999   0.00868   2.76920
   R33        2.56552   0.00564   0.00205   0.01334   0.01541   2.58093
   R34        2.75630   0.00109  -0.00137   0.00419   0.00269   2.75899
   R35        2.57573   0.00253   0.00130   0.00154   0.00280   2.57853
   R36        2.76887  -0.00042  -0.00114   0.00096  -0.00021   2.76865
    A1        2.09611  -0.00009   0.00025  -0.00122  -0.00096   2.09514
    A2        1.86700   0.00027   0.00014   0.00337   0.00349   1.87049
    A3        1.84933   0.00051   0.00006   0.00118   0.00121   1.85053
    A4        2.09163   0.00010  -0.00013   0.00081   0.00067   2.09231
    A5        1.85502   0.00039  -0.00035  -0.00152  -0.00188   1.85314
    A6        1.87786   0.00002   0.00035   0.00193   0.00228   1.88015
    A7        2.09440   0.00024  -0.00011   0.00085   0.00073   2.09513
    A8        1.85411  -0.00030  -0.00013  -0.00370  -0.00383   1.85028
    A9        1.86459   0.00050   0.00009   0.00133   0.00142   1.86601
   A10        2.09675   0.00037   0.00016  -0.00023  -0.00007   2.09669
   A11        1.85120   0.00017  -0.00011   0.00008  -0.00005   1.85115
   A12        1.87088  -0.00008  -0.00013   0.00072   0.00057   1.87144
   A13        2.09107  -0.00027  -0.00012  -0.00093  -0.00104   2.09003
   A14        1.85060   0.00024  -0.00007  -0.00171  -0.00179   1.84881
   A15        1.87673   0.00022  -0.00001   0.00022   0.00019   1.87692
   A16        2.09639  -0.00035  -0.00005   0.00073   0.00067   2.09705
   A17        1.87135   0.00021  -0.00027   0.00114   0.00087   1.87222
   A18        1.85200   0.00047   0.00017   0.00059   0.00076   1.85276
   A19        2.08497  -0.00031  -0.00123   0.00951   0.00817   2.09315
   A20        1.84471  -0.00020  -0.00101   0.00214   0.00109   1.84579
   A21        1.84925   0.00126  -0.00087   0.02035   0.01952   1.86877
   A22        2.08731  -0.00034  -0.00141   0.00995   0.00844   2.09575
   A23        1.87001  -0.00016  -0.00074   0.00344   0.00267   1.87267
   A24        1.83093   0.00136  -0.00113   0.01886   0.01776   1.84869
   A25        2.11345  -0.00067   0.00126  -0.02076  -0.01971   2.09374
   A26        1.88338  -0.00156   0.00080  -0.01590  -0.01534   1.86804
   A27        1.85622   0.00029  -0.00015  -0.00336  -0.00380   1.85242
   A28        2.08116   0.00144   0.00003   0.01258   0.01259   2.09375
   A29        1.87100  -0.00059   0.00033   0.00072   0.00119   1.87219
   A30        1.85551  -0.00076   0.00002  -0.00517  -0.00517   1.85034
   A31        2.08499   0.00087  -0.00013   0.01119   0.01105   2.09604
   A32        1.87994  -0.00112   0.00002  -0.00246  -0.00248   1.87747
   A33        1.84925   0.00020   0.00024   0.00045   0.00083   1.85008
   A34        2.11349  -0.00092   0.00129  -0.02065  -0.01957   2.09392
   A35        1.87274  -0.00188   0.00044  -0.01851  -0.01824   1.85450
   A36        1.86756   0.00071  -0.00008  -0.00023  -0.00066   1.86691
   A37        1.86206   0.00065   0.00090   0.00400   0.00489   1.86695
   A38        1.89274  -0.00056  -0.00049   0.00164   0.00115   1.89389
   A39        1.87786   0.00071  -0.00015   0.00724   0.00703   1.88488
   A40        1.89093  -0.00003   0.00094  -0.01149  -0.01067   1.88026
   A41        1.91651  -0.00043   0.00050  -0.00813  -0.00764   1.90887
   A42        1.91015  -0.00070  -0.00048  -0.00309  -0.00359   1.90656
   A43        1.93186  -0.00054  -0.00054   0.00038  -0.00011   1.93175
   A44        1.87519   0.00051   0.00073   0.00131   0.00214   1.87732
   A45        1.91329  -0.00055   0.00017  -0.00553  -0.00544   1.90784
   A46        1.86593   0.00151   0.00005   0.00784   0.00793   1.87386
   A47        1.92815  -0.00093  -0.00018  -0.00263  -0.00280   1.92535
   A48        1.90370  -0.00019  -0.00027  -0.00064  -0.00093   1.90277
   A49        1.91155  -0.00057  -0.00016  -0.00118  -0.00131   1.91024
   A50        1.86973   0.00013   0.00057   0.00053   0.00113   1.87086
   A51        1.89460   0.00075   0.00015   0.00828   0.00839   1.90299
   A52        1.88762  -0.00007   0.00119  -0.00850  -0.00733   1.88029
   A53        1.92558  -0.00070   0.00021  -0.01190  -0.01180   1.91378
   A54        1.90921  -0.00064  -0.00053  -0.00341  -0.00396   1.90525
   A55        1.87568   0.00117   0.00041   0.00533   0.00574   1.88142
   A56        1.92731  -0.00091   0.00005  -0.00157  -0.00139   1.92591
   A57        1.92031  -0.00136  -0.00002  -0.00958  -0.00966   1.91065
   A58        1.90754  -0.00016   0.00020   0.00205   0.00225   1.90979
   A59        1.86405   0.00034   0.00020   0.00463   0.00484   1.86889
   A60        1.89042   0.00004  -0.00032   0.00386   0.00348   1.89390
   A61        1.89146   0.00041  -0.00040   0.00556   0.00520   1.89666
   A62        1.87289   0.00062   0.00077   0.00154   0.00232   1.87521
   A63        1.90112  -0.00109  -0.00028  -0.00537  -0.00568   1.89544
   A64        1.86650   0.00104   0.00002   0.00676   0.00678   1.87327
   A65        1.89515   0.00073  -0.00040   0.00654   0.00619   1.90134
   A66        1.90282  -0.00110  -0.00039  -0.00368  -0.00410   1.89872
   A67        1.90193  -0.00001  -0.00064   0.00274   0.00207   1.90401
   A68        1.86269   0.00130   0.00021   0.00734   0.00758   1.87027
   A69        1.89047  -0.00031  -0.00007   0.00035   0.00027   1.89075
   A70        1.91459   0.00016  -0.00016   0.00169   0.00155   1.91614
   A71        1.87842   0.00050   0.00027   0.00022   0.00050   1.87892
   A72        1.91278  -0.00018   0.00002  -0.00540  -0.00540   1.90737
    D1       -0.00584   0.00034   0.00020   0.00181   0.00199  -0.00385
    D2        2.12429   0.00077   0.00029   0.00368   0.00393   2.12823
    D3       -2.11084  -0.00051  -0.00017  -0.00181  -0.00196  -2.11280
    D4        0.01930  -0.00008  -0.00008   0.00006  -0.00002   0.01928
    D5        0.00549  -0.00024  -0.00027  -0.00105  -0.00130   0.00419
    D6       -2.10706  -0.00081  -0.00024  -0.00335  -0.00355  -2.11061
    D7        2.11923   0.00049   0.00014   0.00364   0.00376   2.12299
    D8        0.00668  -0.00009   0.00017   0.00134   0.00151   0.00819
    D9        0.09711  -0.00011  -0.00011  -0.00496  -0.00507   0.09204
   D10        2.14874   0.00054   0.00031   0.00454   0.00484   2.15358
   D11       -2.15860  -0.00049  -0.00054  -0.00630  -0.00683  -2.16543
   D12       -0.10696   0.00017  -0.00012   0.00320   0.00308  -0.10389
   D13        0.00238  -0.00002  -0.00005   0.00073   0.00069   0.00307
   D14        2.11579   0.00056  -0.00011  -0.00003  -0.00016   2.11563
   D15       -2.11649  -0.00064   0.00021   0.00054   0.00078  -2.11572
   D16       -0.00309  -0.00005   0.00015  -0.00023  -0.00007  -0.00316
   D17       -0.12047   0.00002   0.00013   0.00392   0.00406  -0.11641
   D18       -2.13868  -0.00087   0.00009  -0.00737  -0.00724  -2.14592
   D19        2.14025   0.00040  -0.00004   0.00517   0.00513   2.14538
   D20        0.12204  -0.00049  -0.00007  -0.00612  -0.00618   0.11586
   D21        0.00143  -0.00039  -0.00004  -0.00404  -0.00406  -0.00263
   D22        2.12243  -0.00009  -0.00020  -0.00316  -0.00339   2.11904
   D23       -2.10678  -0.00058   0.00013  -0.00078  -0.00061  -2.10739
   D24        0.01422  -0.00028  -0.00003   0.00010   0.00007   0.01428
   D25       -0.10683   0.00015  -0.00024   0.00519   0.00496  -0.10187
   D26       -2.17612   0.00001   0.00014   0.00277   0.00293  -2.17319
   D27        2.14831   0.00057  -0.00040   0.00473   0.00432   2.15264
   D28        0.07903   0.00043  -0.00001   0.00231   0.00230   0.08132
   D29       -0.00179   0.00049  -0.00004   0.00479   0.00474   0.00295
   D30        2.12264   0.00080  -0.00019   0.00300   0.00276   2.12541
   D31       -2.11310   0.00006   0.00012   0.00423   0.00437  -2.10873
   D32        0.01133   0.00037  -0.00004   0.00244   0.00238   0.01372
   D33       -2.17540  -0.00027  -0.00011   0.00297   0.00287  -2.17253
   D34       -0.09540  -0.00011  -0.00002  -0.00244  -0.00246  -0.09786
   D35        0.08469   0.00024  -0.00007   0.00319   0.00312   0.08781
   D36        2.16469   0.00041   0.00002  -0.00222  -0.00221   2.16248
   D37       -0.00167  -0.00018   0.00019  -0.00225  -0.00207  -0.00373
   D38        2.12041   0.00027  -0.00006   0.00030   0.00022   2.12063
   D39       -2.11317  -0.00050   0.00038   0.00052   0.00093  -2.11223
   D40        0.00890  -0.00005   0.00013   0.00308   0.00322   0.01213
   D41       -2.14710  -0.00017   0.00016  -0.00430  -0.00414  -2.15124
   D42       -0.09663  -0.00090   0.00002  -0.00688  -0.00685  -0.10348
   D43        0.10935  -0.00020  -0.00004  -0.00639  -0.00644   0.10292
   D44        2.15982  -0.00093  -0.00018  -0.00896  -0.00915   2.15067
   D45        0.10384  -0.00004  -0.00029  -0.00542  -0.00573   0.09811
   D46        2.14528   0.00011  -0.00046   0.00271   0.00223   2.14751
   D47       -2.15662  -0.00005  -0.00018  -0.00741  -0.00758  -2.16420
   D48       -0.11518   0.00010  -0.00034   0.00073   0.00038  -0.11480
   D49        0.00251   0.00015  -0.00012   0.00054   0.00043   0.00294
   D50       -2.07435  -0.00130   0.00268  -0.03400  -0.03146  -2.10581
   D51        2.08153   0.00145  -0.00264   0.03503   0.03253   2.11406
   D52        0.00467   0.00000   0.00017   0.00049   0.00065   0.00531
   D53       -0.03578   0.00127  -0.00163   0.03131   0.02950  -0.00628
   D54        2.11203  -0.00016  -0.00024  -0.00187  -0.00179   2.11024
   D55       -2.11248   0.00072   0.00097   0.00605   0.00651  -2.10597
   D56        0.03533  -0.00072   0.00236  -0.02713  -0.02478   0.01055
   D57       -0.08602  -0.00042   0.00023  -0.01004  -0.00975  -0.09577
   D58       -2.17355   0.00081  -0.00000   0.00631   0.00619  -2.16736
   D59        2.14292  -0.00017  -0.00214   0.01423   0.01230   2.15522
   D60        0.05539   0.00106  -0.00238   0.03057   0.02824   0.08363
   D61        0.03276  -0.00138   0.00178  -0.03146  -0.02950   0.00326
   D62       -2.10898   0.00017   0.00013   0.00396   0.00384  -2.10514
   D63        2.12941  -0.00071  -0.00074  -0.00530  -0.00557   2.12384
   D64       -0.01233   0.00084  -0.00239   0.03012   0.02777   0.01543
   D65        2.16985  -0.00072  -0.00033  -0.00528  -0.00550   2.16435
   D66        0.08448   0.00040  -0.00063   0.01013   0.00945   0.09393
   D67       -0.06575  -0.00104   0.00228  -0.03051  -0.02829  -0.09404
   D68       -2.15112   0.00008   0.00197  -0.01510  -0.01334  -2.16446
   D69       -0.03471   0.00115  -0.00176   0.03041   0.02859  -0.00612
   D70       -2.14102   0.00166  -0.00208   0.02803   0.02574  -2.11528
   D71        2.11989  -0.00125   0.00026  -0.01031  -0.00987   2.11002
   D72        0.01358  -0.00074  -0.00006  -0.01269  -0.01272   0.00086
   D73        0.09386  -0.00056   0.00173  -0.02105  -0.01916   0.07470
   D74        2.18239  -0.00123   0.00207  -0.02674  -0.02452   2.15786
   D75       -2.19831   0.00113  -0.00034   0.01793   0.01760  -2.18071
   D76       -0.10979   0.00046  -0.00001   0.01224   0.01223  -0.09755
   D77        0.00151   0.00023  -0.00006   0.00132   0.00127   0.00278
   D78       -2.10658   0.00030  -0.00031  -0.00514  -0.00562  -2.11221
   D79        2.11561  -0.00020   0.00041   0.00653   0.00713   2.12275
   D80        0.00752  -0.00014   0.00016   0.00007   0.00024   0.00776
   D81        0.09576   0.00050   0.00001   0.00877   0.00880   0.10456
   D82        2.13364   0.00083  -0.00028   0.01451   0.01430   2.14795
   D83       -2.14814  -0.00041  -0.00024  -0.00373  -0.00401  -2.15215
   D84       -0.11026  -0.00008  -0.00053   0.00201   0.00149  -0.10876
   D85        0.03372  -0.00144   0.00178  -0.03216  -0.03030   0.00342
   D86       -2.11654   0.00122   0.00017   0.00954   0.00958  -2.10695
   D87        2.15713  -0.00218   0.00192  -0.02741  -0.02527   2.13186
   D88        0.00687   0.00048   0.00031   0.01429   0.01461   0.02148
   D89        2.15745  -0.00018  -0.00050   0.00031  -0.00014   2.15730
   D90        0.10650   0.00018   0.00015  -0.00239  -0.00225   0.10424
   D91       -0.09271  -0.00067  -0.00051  -0.01212  -0.01265  -0.10536
   D92       -2.14366  -0.00031   0.00014  -0.01482  -0.01475  -2.15842
   D93       -0.10869   0.00012  -0.00178   0.01635   0.01441  -0.09428
   D94       -2.20342   0.00158  -0.00204   0.02562   0.02343  -2.17998
   D95        2.18410  -0.00182   0.00013  -0.02223  -0.02213   2.16197
   D96        0.08938  -0.00036  -0.00013  -0.01296  -0.01311   0.07627
   D97       -1.90337   0.00073  -0.00111   0.01092   0.00967  -1.89369
   D98        0.18599  -0.00022  -0.00023  -0.00756  -0.00780   0.17820
   D99        0.12480   0.00076  -0.00130   0.01838   0.01698   0.14179
   D100       2.21417  -0.00019  -0.00042  -0.00011  -0.00049   2.21368
   D101       1.87381   0.00061   0.00058   0.00882   0.00946   1.88326
   D102      -0.19168   0.00066  -0.00009   0.01041   0.01027  -0.18141
   D103      -0.13411  -0.00024  -0.00015  -0.00043  -0.00053  -0.13464
   D104      -2.19960  -0.00019  -0.00082   0.00116   0.00028  -2.19931
   D105       1.89671  -0.00048   0.00143  -0.01260  -0.01115   1.88556
   D106      -0.13928  -0.00074   0.00074  -0.01726  -0.01654  -0.15582
   D107      -0.17686   0.00024   0.00027   0.00818   0.00844  -0.16843
   D108      -2.21286  -0.00003  -0.00041   0.00353   0.00305  -2.20981
   D109      -1.91061   0.00010   0.00035  -0.00811  -0.00779  -1.91840
   D110       0.17453  -0.00025   0.00002  -0.00713  -0.00711   0.16742
   D111       0.18973  -0.00056   0.00024  -0.01003  -0.00977   0.17996
   D112       2.27487  -0.00092  -0.00009  -0.00905  -0.00909   2.26578
   D113       1.88005   0.00093  -0.00012   0.00652   0.00646   1.88651
   D114      -0.14005  -0.00044  -0.00000  -0.00382  -0.00381  -0.14386
   D115      -0.16606  -0.00025   0.00007  -0.00109  -0.00100  -0.16706
   D116      -2.18616  -0.00162   0.00019  -0.01143  -0.01126  -2.19743
   D117      -1.92111   0.00097  -0.00080   0.01422   0.01338  -1.90773
   D118       0.17670  -0.00029  -0.00015  -0.00725  -0.00738   0.16932
   D119       0.14159   0.00076  -0.00059   0.01750   0.01693   0.15852
   D120       2.23940  -0.00049   0.00007  -0.00397  -0.00383   2.23557
   D121       1.90014  -0.00063   0.00152  -0.01163  -0.00996   1.89018
   D122      -0.12455  -0.00098   0.00136  -0.02036  -0.01889  -0.14344
   D123      -0.17428   0.00027   0.00026   0.00811   0.00836  -0.16592
   D124      -2.19897  -0.00007   0.00009  -0.00062  -0.00057  -2.19954
   D125      -1.90826   0.00067  -0.00001  -0.00220  -0.00225  -1.91051
   D126       0.14448   0.00068   0.00017   0.00464   0.00480   0.14928
   D127       0.19091  -0.00051   0.00029  -0.00640  -0.00606   0.18485
   D128       2.24364  -0.00050   0.00047   0.00044   0.00100   2.24464
   D129       1.88198   0.00045   0.00033   0.00782   0.00818   1.89016
   D130      -0.15033   0.00008  -0.00021   0.00585   0.00567  -0.14466
   D131      -0.18569   0.00041  -0.00019   0.00816   0.00793  -0.17775
   D132      -2.21800   0.00004  -0.00073   0.00619   0.00543  -2.21257
   D133      -1.89305   0.00010   0.00056  -0.00070  -0.00020  -1.89326
   D134       0.15285   0.00095  -0.00010   0.00878   0.00866   0.16151
   D135       0.15109   0.00035   0.00035   0.00389   0.00420   0.15529
   D136       2.19700   0.00120  -0.00031   0.01336   0.01306   2.21006
   D137       1.88008   0.00033  -0.00026   0.00231   0.00206   1.88214
   D138      -0.17868  -0.00027  -0.00051   0.00424   0.00375  -0.17493
   D139      -0.14757  -0.00070   0.00013  -0.00733  -0.00718  -0.15475
   D140      -2.20633  -0.00131  -0.00011  -0.00539  -0.00549  -2.21181
   D141      -1.89875  -0.00018   0.00067  -0.00321  -0.00257  -1.90132
   D142       0.18242   0.00021   0.00064  -0.00409  -0.00346   0.17895
   D143       0.14673   0.00034  -0.00000   0.00403   0.00403   0.15076
   D144       2.22790   0.00073  -0.00003   0.00315   0.00314   2.23103
         Item               Value     Threshold  Converged?
 Maximum Force            0.008546     0.000450     NO 
 RMS     Force            0.001291     0.000300     NO 
 Maximum Displacement     0.036626     0.001800     NO 
 RMS     Displacement     0.005876     0.001200     NO 
 Predicted change in Energy=-1.017275D-03
 GradGradGradGradGradGradGradGradGradGradGradGradGradGradGradGradGradGrad

                          Input orientation:                          
 ---------------------------------------------------------------------
 Center     Atomic      Atomic             Coordinates (Angstroms)
 Number     Number       Type             X           Y           Z
 ---------------------------------------------------------------------
      1          6           0       -1.045858   -0.027941    2.196618
      2          6           0       -1.512832   -1.246149    1.629617
      3          6           0       -2.418294   -1.216157    0.533297
      4          6           0       -2.854061    0.032937    0.001324
      5          6           0       -2.387571    1.251376    0.566872
      6          6           0       -1.480908    1.219464    1.664007
      7          6           0        1.351812    0.738794   -0.045901
      8          6           0        1.368868   -0.688475   -0.021082
      9          6           0        0.594120   -1.425792   -0.955159
     10          6           0       -0.199528   -0.739136   -1.922601
     11          6           0       -0.219265    0.680347   -1.945113
     12          6           0        0.555767    1.421562   -1.004222
     13          6           0       -0.258096   -2.019418    1.180660
     14          6           0        0.882724   -1.127151    1.369363
     15          6           0       -0.368156   -2.287046   -0.153871
     16          6           0       -1.728789   -1.966309   -0.602816
     17          6           0        0.483244   -0.029466    2.076622
     18          6           0        0.859494    1.173785    1.340787
     19          6           0       -0.414611    2.286836   -0.213189
     20          6           0       -0.234348    1.977681    1.207838
     21          6           0       -1.701685    2.013050   -0.578982
     22          6           0       -1.677650    1.128120   -1.739973
     23          6           0       -1.656239   -1.180062   -1.713383
     24          6           0       -2.444196    0.031414   -1.472570
 ---------------------------------------------------------------------
                    Distance matrix (angstroms):
                    1          2          3          4          5
     1  C    0.000000
     2  C    1.422528   0.000000
     3  C    2.462128   1.422209   0.000000
     4  C    2.844753   2.467042   1.425877   0.000000
     5  C    2.468384   2.851706   2.467953   1.421988   0.000000
     6  C    1.424417   2.466060   2.844196   2.461282   1.423644
     7  C    3.371291   3.866981   4.286141   4.264954   3.823770
     8  C    3.344459   3.367492   3.863727   4.284164   4.268436
     9  C    3.818012   3.339548   3.366613   3.864285   4.286524
    10  C    4.264978   3.821005   3.343936   3.368105   3.866154
    11  C    4.282390   4.261853   3.817718   3.339147   3.367149
    12  C    3.861560   4.281692   4.262225   3.816585   3.340739
    13  C    2.370385   1.540737   2.393901   3.513123   3.950886
    14  C    2.368976   2.412588   3.406413   4.144985   4.122647
    15  C    3.329810   2.361054   2.412896   3.403841   4.137383
    16  C    3.472823   2.355637   1.526073   2.372384   3.486497
    17  C    1.533805   2.380011   3.494140   3.930440   3.487332
    18  C    2.409764   3.401093   4.136153   4.109280   3.338922
    19  C    3.400564   4.133280   4.104016   3.328211   2.360772
    20  C    2.378814   3.493637   3.927497   3.478592   2.361086
    21  C    3.507094   3.941567   3.489767   2.363381   1.537390
    22  C    4.151191   4.125343   3.348424   2.369700   2.416756
    23  C    4.121657   3.346726   2.372678   2.417925   3.412667
    24  C    3.927062   3.481834   2.362331   1.529822   2.377149
                    6          7          8          9         10
     6  C    0.000000
     7  C    3.343521   0.000000
     8  C    3.821123   1.427587   0.000000
     9  C    4.261825   2.467039   1.419990   0.000000
    10  C    4.282734   2.848321   2.465402   1.427346   0.000000
    11  C    3.861106   2.465503   2.845652   2.465243   1.419799
    12  C    3.362787   1.420647   2.465756   2.848035   2.466273
    13  C    3.495605   3.421110   2.421282   2.374950   3.357496
    14  C    3.343677   2.388466   1.536916   2.361330   3.486954
    15  C    4.103475   3.482191   2.364384   1.519801   2.356452
    16  C    3.917791   4.137371   3.400993   2.410852   2.363562
    17  C    2.363889   2.418623   2.370439   3.339718   4.118688
    18  C    2.363058   1.534437   2.362659   3.478447   3.928167
    19  C    2.408347   2.354711   3.474216   3.918120   3.482076
    20  C    1.528691   2.371203   3.344986   4.116861   4.145112
    21  C    2.389460   3.351379   4.127685   4.151850   3.411204
    22  C    3.410884   3.492720   3.941557   3.507041   2.388481
    23  C    4.146713   3.938385   3.500973   2.387342   1.536293
    24  C    3.489628   4.116485   4.143008   3.409183   2.415535
                   11         12         13         14         15
    11  C    0.000000
    12  C    1.426656   0.000000
    13  C    4.130459   4.156492   0.000000
    14  C    3.932833   3.498106   1.460555   0.000000
    15  C    3.469313   3.915418   1.365544   2.286984   0.000000
    16  C    3.329446   4.105848   2.312260   3.378413   1.468246
    17  C    4.143875   3.406221   2.304831   1.365545   3.285825
    18  C    3.493471   2.377543   3.386915   2.301231   3.964653
    19  C    2.370343   1.521863   4.528922   3.980308   4.574502
    20  C    3.409457   2.413868   3.997262   3.303623   4.478845
    21  C    2.416605   2.372082   4.630452   4.509554   4.522150
    22  C    1.539308   2.369723   4.522414   4.616247   3.986709
    23  C    2.362142   3.487739   3.321868   3.994052   2.305786
    24  C    2.365317   3.339406   4.003071   4.526285   3.379966
                   16         17         18         19         20
    16  C    0.000000
    17  C    3.977919   0.000000
    18  C    4.509655   1.459736   0.000000
    19  C    4.468570   3.378554   2.297187   0.000000
    20  C    4.589867   2.301817   1.363970   1.465397   0.000000
    21  C    3.979523   3.999752   3.309005   1.365768   2.312369
    22  C    3.297155   4.536063   3.991274   2.295422   3.390349
    23  C    1.362647   4.501710   4.604070   3.976381   4.530634
    24  C    2.293290   4.601128   4.487132   3.285146   3.981955
                   21         22         23         24
    21  C    0.000000
    22  C    1.459993   0.000000
    23  C    3.388937   2.308434   0.000000
    24  C    2.297108   1.364499   1.465108   0.000000
 Stoichiometry    C24
 Framework group  C1[X(C24)]
 Deg. of freedom    66
 Full point group                 C1      NOp   1
 Largest Abelian subgroup         C1      NOp   1
 Largest concise Abelian subgroup C1      NOp   1
                         Standard orientation:                         
 ---------------------------------------------------------------------
 Center     Atomic      Atomic             Coordinates (Angstroms)
 Number     Number       Type             X           Y           Z
 ---------------------------------------------------------------------
      1          6           0        1.221853    0.730050    1.635763
      2          6           0        1.240993   -0.692347    1.638184
      3          6           0        0.017487   -1.417404    1.640234
      4          6           0       -1.225899   -0.719478    1.636073
      5          6           0       -1.246375    0.702360    1.633102
      6          6           0       -0.020671    1.426520    1.630647
      7          6           0        0.644602    1.266607   -1.642115
      8          6           0        1.423452    0.070209   -1.636754
      9          6           0        0.781910   -1.196583   -1.631001
     10          6           0       -0.643337   -1.273883   -1.634613
     11          6           0       -1.418015   -0.084052   -1.636422
     12          6           0       -0.773914    1.188929   -1.638071
     13          6           0        2.033485   -1.113113    0.385674
     14          6           0        2.302929    0.103148   -0.376776
     15          6           0        1.241096   -1.922391   -0.377149
     16          6           0        0.042068   -2.288188    0.387226
     17          6           0        1.970806    1.190855    0.379068
     18          6           0        1.057123    2.037989   -0.381443
     19          6           0       -1.237156    1.922634   -0.387811
     20          6           0       -0.045705    2.300829    0.376911
     21          6           0       -2.028133    1.110443    0.373781
     22          6           0       -2.308511   -0.107419   -0.381057
     23          6           0       -1.061165   -2.049833   -0.376234
     24          6           0       -1.968923   -1.185884    0.382784
 ---------------------------------------------------------------------
 Rotational constants (GHZ):      0.5426747      0.5400341      0.4792636
 Standard basis: 6-31G(d,p) (6D, 7F)
 There are   360 symmetry adapted cartesian basis functions of A   symmetry.
 There are   360 symmetry adapted basis functions of A   symmetry.
   360 basis functions,   672 primitive gaussians,   360 cartesian basis functions
    72 alpha electrons       72 beta electrons
       nuclear repulsion energy      1905.7189277920 Hartrees.
 NAtoms=   24 NActive=   24 NUniq=   24 SFac= 1.00D+00 NAtFMM=   60 NAOKFM=F Big=F
 Integral buffers will be    131072 words long.
 Raffenetti 2 integral format.
 Two-electron integral symmetry is turned on.
 One-electron integrals computed using PRISM.
 NBasis=   360 RedAO= T EigKep=  5.43D-04  NBF=   360
 NBsUse=   360 1.00D-06 EigRej= -1.00D+00 NBFU=   360
 Initial guess from the checkpoint file:  "/scratch/tmp/3419169/Gau-146785.chk"
 B after Tr=     0.000000   -0.000000    0.000000
         Rot=    0.991016    0.000805   -0.002119   -0.133721 Ang=  15.37 deg.
 ExpMin= 1.69D-01 ExpMax= 3.05D+03 ExpMxC= 4.57D+02 IAcc=1 IRadAn=         1 AccDes= 0.00D+00
 Harris functional with IExCor=  402 and IRadAn=       1 diagonalized for initial guess.
 HarFok:  IExCor=  402 AccDes= 0.00D+00 IRadAn=         1 IDoV= 1 UseB2=F ITyADJ=14
 ICtDFT=  3500011 ScaDFX=  1.000000  1.000000  1.000000  1.000000
 FoFCou: FMM=F IPFlag=           0 FMFlag=      100000 FMFlg1=           0
         NFxFlg=           0 DoJE=T BraDBF=F KetDBF=T FulRan=T
         wScrn=  0.000000 ICntrl=     500 IOpCl=  0 I1Cent=   200000004 NGrid=           0
         NMat0=    1 NMatS0=      1 NMatT0=    0 NMatD0=    1 NMtDS0=    0 NMtDT0=    0
 Petite list used in FoFCou.
 Requested convergence on RMS density matrix=1.00D-08 within  64 cycles.
 Requested convergence on MAX density matrix=1.00D-06.
 Requested convergence on             energy=1.00D-06.
 No special actions if energy rises.
 Integral accuracy reduced to 1.0D-05 until final iterations.
 EnCoef did     4 forward-backward iterations
 Initial convergence to 1.0D-05 achieved.  Increase integral accuracy.
 SCF Done:  E(RB3LYP) =  -913.839508967     A.U. after   17 cycles
            NFock= 17  Conv=0.36D-08     -V/T= 2.0091
 QCSCF skips out because SCF is already converged.
 Calling FoFJK, ICntrl=      2127 FMM=F ISym2X=0 I1Cent= 0 IOpClX= 0 NMat=1 NMatS=1 NMatT=0.
 ***** Axes restored to original set *****
 -------------------------------------------------------------------
 Center     Atomic                   Forces (Hartrees/Bohr)
 Number     Number              X              Y              Z
 -------------------------------------------------------------------
      1        6           0.000678386   -0.000063415   -0.000279132
      2        6           0.000746165   -0.000097270   -0.000223490
      3        6          -0.000694619    0.000660238   -0.000315535
      4        6           0.000500186   -0.000722646    0.000082043
      5        6           0.000648316   -0.000132645   -0.000334997
      6        6          -0.000581265    0.000207564    0.000425665
      7        6          -0.000361084   -0.002962750    0.002212760
      8        6           0.000427218    0.002969920    0.002054762
      9        6           0.000372013    0.001923312   -0.002407373
     10        6          -0.000795779   -0.000426820    0.000636828
     11        6          -0.001056352    0.000754816   -0.000130489
     12        6          -0.000213056   -0.001558566   -0.001855326
     13        6          -0.000773030    0.002437463   -0.000671852
     14        6           0.001523133   -0.000349753   -0.000246410
     15        6          -0.003732564   -0.001528500    0.000441581
     16        6           0.002109666   -0.002281362    0.001652520
     17        6          -0.002051940   -0.000215703   -0.000297271
     18        6           0.002529817   -0.000071105   -0.000966884
     19        6          -0.000850228    0.001771324    0.000734910
     20        6          -0.001021972   -0.000901152   -0.001223599
     21        6           0.000518039   -0.000565056    0.001412119
     22        6           0.002304482   -0.000140578   -0.000147470
     23        6           0.000365256    0.003453365   -0.000158907
     24        6          -0.000590791   -0.002160683   -0.000394454
 -------------------------------------------------------------------
 Cartesian Forces:  Max     0.003732564 RMS     0.001356795

 GradGradGradGradGradGradGradGradGradGradGradGradGradGradGradGradGradGrad
 Berny optimization.
 Using GEDIIS/GDIIS optimizer.
 FormGI is forming the generalized inverse of G from B-inverse, IUseBI=4.
 Internal  Forces:  Max     0.002605039 RMS     0.000421511
 Search for a local minimum.
 Step number   4 out of a maximum of  144
 All quantities printed in internal units (Hartrees-Bohrs-Radians)
 Mixed Optimization -- En-DIIS/RFO-DIIS
 Update second derivatives using D2CorX and points    2    3    4
 DE= -8.08D-04 DEPred=-1.02D-03 R= 7.95D-01
 TightC=F SS=  1.41D+00  RLast= 1.57D-01 DXNew= 1.4270D+00 4.7132D-01
 Trust test= 7.95D-01 RLast= 1.57D-01 DXMaxT set to 8.49D-01
 ITU=  1  1  1  0
 Use linear search instead of GDIIS.
     Eigenvalues ---    0.03524   0.03700   0.03999   0.04302   0.04464
     Eigenvalues ---    0.04496   0.04966   0.05100   0.05115   0.05743
     Eigenvalues ---    0.05963   0.06139   0.06291   0.06914   0.07136
     Eigenvalues ---    0.07324   0.07406   0.08204   0.08276   0.08394
     Eigenvalues ---    0.08448   0.08501   0.08599   0.09274   0.09439
     Eigenvalues ---    0.09608   0.09693   0.09926   0.11788   0.12219
     Eigenvalues ---    0.16140   0.16233   0.17371   0.17683   0.17894
     Eigenvalues ---    0.18038   0.18472   0.21590   0.21908   0.22763
     Eigenvalues ---    0.23005   0.25460   0.27312   0.28485   0.29219
     Eigenvalues ---    0.30749   0.31997   0.32423   0.32802   0.33287
     Eigenvalues ---    0.35028   0.35544   0.36025   0.36583   0.37208
     Eigenvalues ---    0.37430   0.37963   0.38981   0.39365   0.39598
     Eigenvalues ---    0.40691   0.41525   0.41914   0.42110   0.42477
     Eigenvalues ---    0.46136
 RFO step:  Lambda=-2.80458402D-04 EMin= 3.52444823D-02
 Quartic linear search produced a step of  0.09547.
 Iteration  1 RMS(Cart)=  0.00206211 RMS(Int)=  0.00002456
 Iteration  2 RMS(Cart)=  0.00000872 RMS(Int)=  0.00002211
 Iteration  3 RMS(Cart)=  0.00000000 RMS(Int)=  0.00002211
 Variable       Old X    -DE/DX   Delta X   Delta X   Delta X     New X
                                 (Linear)    (Quad)   (Total)
    R1        2.68819  -0.00047  -0.00019  -0.00129  -0.00150   2.68669
    R2        2.69176  -0.00045   0.00012  -0.00148  -0.00138   2.69037
    R3        2.89847  -0.00064   0.00031  -0.00244  -0.00216   2.89631
    R4        2.68759  -0.00014  -0.00018  -0.00057  -0.00077   2.68681
    R5        2.91157  -0.00089   0.00022  -0.00421  -0.00398   2.90759
    R6        2.69452  -0.00087  -0.00012  -0.00212  -0.00225   2.69227
    R7        2.88386  -0.00023   0.00036   0.00161   0.00196   2.88582
    R8        2.68717   0.00019   0.00003   0.00039   0.00041   2.68758
    R9        2.89094  -0.00003   0.00015  -0.00059  -0.00045   2.89050
   R10        2.69030  -0.00032  -0.00001  -0.00171  -0.00175   2.68855
   R11        2.90525  -0.00041   0.00025  -0.00180  -0.00156   2.90368
   R12        2.88881  -0.00004   0.00051   0.00073   0.00124   2.89005
   R13        2.69775  -0.00261   0.00223  -0.01524  -0.01296   2.68479
   R14        2.68463   0.00123   0.00110   0.00387   0.00501   2.68964
   R15        2.89967  -0.00114  -0.00017  -0.00477  -0.00493   2.89474
   R16        2.68339   0.00126   0.00089   0.00424   0.00516   2.68855
   R17        2.90435  -0.00066  -0.00035  -0.00303  -0.00338   2.90097
   R18        2.69729  -0.00074   0.00013  -0.00202  -0.00188   2.69541
   R19        2.87201   0.00169   0.00141   0.00860   0.01003   2.88204
   R20        2.68303  -0.00080   0.00148  -0.00110   0.00036   2.68339
   R21        2.90317  -0.00068   0.00002  -0.00449  -0.00448   2.89870
   R22        2.69599  -0.00071   0.00016  -0.00153  -0.00136   2.69463
   R23        2.90887  -0.00135  -0.00017  -0.00613  -0.00631   2.90256
   R24        2.87590   0.00081   0.00126   0.00598   0.00729   2.88319
   R25        2.76005   0.00016   0.00009   0.00045   0.00055   2.76060
   R26        2.58050  -0.00019   0.00098  -0.00102  -0.00003   2.58047
   R27        2.58051  -0.00034   0.00105  -0.00031   0.00073   2.58123
   R28        2.77458  -0.00241  -0.00049  -0.00608  -0.00657   2.76801
   R29        2.57503   0.00134   0.00046   0.00284   0.00329   2.57832
   R30        2.75850  -0.00007   0.00121   0.00225   0.00346   2.76196
   R31        2.57753   0.00069   0.00060   0.00118   0.00178   2.57932
   R32        2.76920  -0.00090   0.00083   0.00008   0.00091   2.77011
   R33        2.58093  -0.00074   0.00147  -0.00225  -0.00076   2.58016
   R34        2.75899   0.00029   0.00026   0.00128   0.00151   2.76050
   R35        2.57853   0.00082   0.00027   0.00184   0.00210   2.58063
   R36        2.76865  -0.00160  -0.00002  -0.00388  -0.00390   2.76475
    A1        2.09514  -0.00015  -0.00009  -0.00040  -0.00049   2.09466
    A2        1.87049   0.00003   0.00033   0.00036   0.00069   1.87118
    A3        1.85053   0.00015   0.00012   0.00053   0.00064   1.85117
    A4        2.09231   0.00029   0.00006   0.00261   0.00267   2.09498
    A5        1.85314  -0.00002  -0.00018  -0.00170  -0.00188   1.85126
    A6        1.88015  -0.00023   0.00022  -0.00093  -0.00070   1.87945
    A7        2.09513  -0.00009   0.00007  -0.00220  -0.00213   2.09300
    A8        1.85028  -0.00020  -0.00037  -0.00120  -0.00156   1.84872
    A9        1.86601   0.00012   0.00014   0.00039   0.00052   1.86653
   A10        2.09669  -0.00010  -0.00001  -0.00042  -0.00043   2.09626
   A11        1.85115   0.00013  -0.00000   0.00152   0.00152   1.85267
   A12        1.87144  -0.00001   0.00005   0.00043   0.00048   1.87193
   A13        2.09003   0.00009  -0.00010   0.00228   0.00218   2.09222
   A14        1.84881   0.00022  -0.00017   0.00064   0.00047   1.84927
   A15        1.87692  -0.00020   0.00002  -0.00060  -0.00059   1.87633
   A16        2.09705  -0.00004   0.00006  -0.00187  -0.00181   2.09524
   A17        1.87222  -0.00005   0.00008  -0.00156  -0.00148   1.87074
   A18        1.85276  -0.00013   0.00007  -0.00160  -0.00152   1.85123
   A19        2.09315  -0.00021   0.00078   0.00240   0.00313   2.09628
   A20        1.84579   0.00034   0.00010   0.00342   0.00350   1.84930
   A21        1.86877  -0.00004   0.00186   0.00476   0.00658   1.87536
   A22        2.09575  -0.00032   0.00081  -0.00043   0.00035   2.09610
   A23        1.87267   0.00038   0.00025   0.00285   0.00311   1.87578
   A24        1.84869  -0.00008   0.00170   0.00406   0.00573   1.85442
   A25        2.09374   0.00051  -0.00188  -0.00011  -0.00203   2.09171
   A26        1.86804  -0.00021  -0.00146  -0.00305  -0.00455   1.86349
   A27        1.85242  -0.00017  -0.00036  -0.00198  -0.00238   1.85004
   A28        2.09375  -0.00020   0.00120   0.00059   0.00177   2.09552
   A29        1.87219   0.00001   0.00011   0.00079   0.00094   1.87313
   A30        1.85034   0.00020  -0.00049   0.00005  -0.00044   1.84990
   A31        2.09604  -0.00025   0.00106  -0.00218  -0.00114   2.09490
   A32        1.87747  -0.00013  -0.00024  -0.00124  -0.00148   1.87599
   A33        1.85008   0.00021   0.00008   0.00049   0.00060   1.85068
   A34        2.09392   0.00048  -0.00187  -0.00020  -0.00209   2.09183
   A35        1.85450  -0.00032  -0.00174  -0.00398  -0.00573   1.84877
   A36        1.86691  -0.00008  -0.00006  -0.00016  -0.00027   1.86664
   A37        1.86695   0.00025   0.00047   0.00445   0.00490   1.87185
   A38        1.89389  -0.00005   0.00011   0.00266   0.00274   1.89663
   A39        1.88488   0.00050   0.00067   0.00592   0.00655   1.89144
   A40        1.88026   0.00032  -0.00102  -0.00399  -0.00505   1.87521
   A41        1.90887  -0.00019  -0.00073  -0.00322  -0.00398   1.90489
   A42        1.90656  -0.00048  -0.00034  -0.00462  -0.00497   1.90159
   A43        1.93175  -0.00058  -0.00001  -0.00440  -0.00441   1.92734
   A44        1.87732   0.00012   0.00020   0.00048   0.00069   1.87801
   A45        1.90784   0.00031  -0.00052  -0.00093  -0.00145   1.90639
   A46        1.87386   0.00021   0.00076   0.00140   0.00215   1.87601
   A47        1.92535  -0.00048  -0.00027  -0.00382  -0.00408   1.92127
   A48        1.90277   0.00000  -0.00009  -0.00097  -0.00105   1.90172
   A49        1.91024   0.00025  -0.00013   0.00274   0.00262   1.91286
   A50        1.87086   0.00038   0.00011   0.00311   0.00323   1.87409
   A51        1.90299  -0.00051   0.00080  -0.00103  -0.00024   1.90275
   A52        1.88029  -0.00007  -0.00070  -0.00368  -0.00441   1.87588
   A53        1.91378   0.00018  -0.00113  -0.00353  -0.00471   1.90907
   A54        1.90525  -0.00055  -0.00038  -0.00490  -0.00529   1.89995
   A55        1.88142  -0.00007   0.00055  -0.00206  -0.00153   1.87989
   A56        1.92591  -0.00028  -0.00013  -0.00246  -0.00258   1.92333
   A57        1.91065  -0.00001  -0.00092  -0.00420  -0.00514   1.90552
   A58        1.90979   0.00008   0.00021   0.00371   0.00392   1.91371
   A59        1.86889   0.00012   0.00046   0.00328   0.00372   1.87262
   A60        1.89390   0.00019   0.00033   0.00332   0.00363   1.89753
   A61        1.89666   0.00027   0.00050   0.00433   0.00483   1.90149
   A62        1.87521   0.00006   0.00022  -0.00046  -0.00024   1.87498
   A63        1.89544  -0.00010  -0.00054  -0.00003  -0.00058   1.89486
   A64        1.87327   0.00022   0.00065   0.00171   0.00235   1.87562
   A65        1.90134   0.00010   0.00059   0.00315   0.00374   1.90508
   A66        1.89872  -0.00016  -0.00039   0.00008  -0.00031   1.89841
   A67        1.90401   0.00007   0.00020   0.00233   0.00251   1.90652
   A68        1.87027   0.00021   0.00072   0.00282   0.00354   1.87381
   A69        1.89075   0.00000   0.00003   0.00287   0.00289   1.89364
   A70        1.91614  -0.00012   0.00015  -0.00111  -0.00097   1.91517
   A71        1.87892   0.00020   0.00005  -0.00172  -0.00168   1.87723
   A72        1.90737  -0.00034  -0.00052  -0.00369  -0.00422   1.90316
    D1       -0.00385   0.00007   0.00019  -0.00013   0.00005  -0.00380
    D2        2.12823  -0.00006   0.00038  -0.00101  -0.00064   2.12759
    D3       -2.11280  -0.00006  -0.00019  -0.00087  -0.00106  -2.11386
    D4        0.01928  -0.00019  -0.00000  -0.00175  -0.00175   0.01753
    D5        0.00419  -0.00021  -0.00012  -0.00237  -0.00249   0.00170
    D6       -2.11061   0.00004  -0.00034   0.00248   0.00215  -2.10846
    D7        2.12299  -0.00014   0.00036  -0.00171  -0.00135   2.12164
    D8        0.00819   0.00012   0.00014   0.00314   0.00328   0.01147
    D9        0.09204   0.00011  -0.00048  -0.00204  -0.00253   0.08951
   D10        2.15358  -0.00015   0.00046  -0.00002   0.00045   2.15403
   D11       -2.16543   0.00017  -0.00065  -0.00211  -0.00277  -2.16820
   D12       -0.10389  -0.00008   0.00029  -0.00009   0.00021  -0.10368
   D13        0.00307   0.00012   0.00007   0.00241   0.00248   0.00555
   D14        2.11563   0.00006  -0.00002   0.00042   0.00041   2.11603
   D15       -2.11572   0.00015   0.00007   0.00364   0.00372  -2.11200
   D16       -0.00316   0.00008  -0.00001   0.00165   0.00165  -0.00151
   D17       -0.11641   0.00023   0.00039   0.00468   0.00508  -0.11132
   D18       -2.14592  -0.00045  -0.00069  -0.00591  -0.00661  -2.15253
   D19        2.14538   0.00042   0.00049   0.00619   0.00669   2.15207
   D20        0.11586  -0.00026  -0.00059  -0.00441  -0.00500   0.11086
   D21       -0.00263  -0.00019  -0.00039  -0.00220  -0.00259  -0.00522
   D22        2.11904  -0.00015  -0.00032  -0.00061  -0.00093   2.11811
   D23       -2.10739   0.00004  -0.00006   0.00060   0.00055  -2.10684
   D24        0.01428   0.00007   0.00001   0.00220   0.00221   0.01649
   D25       -0.10187   0.00001   0.00047   0.00125   0.00172  -0.10015
   D26       -2.17319   0.00016   0.00028   0.00372   0.00400  -2.16919
   D27        2.15264  -0.00014   0.00041  -0.00193  -0.00152   2.15112
   D28        0.08132   0.00000   0.00022   0.00054   0.00075   0.08208
   D29        0.00295   0.00005   0.00045  -0.00028   0.00017   0.00313
   D30        2.12541   0.00004   0.00026   0.00103   0.00128   2.12669
   D31       -2.10873  -0.00005   0.00042  -0.00242  -0.00200  -2.11073
   D32        0.01372  -0.00006   0.00023  -0.00111  -0.00089   0.01283
   D33       -2.17253   0.00014   0.00027   0.00172   0.00199  -2.17054
   D34       -0.09786  -0.00023  -0.00023  -0.00436  -0.00459  -0.10245
   D35        0.08781   0.00009   0.00030   0.00245   0.00275   0.09055
   D36        2.16248  -0.00027  -0.00021  -0.00363  -0.00384   2.15864
   D37       -0.00373   0.00015  -0.00020   0.00256   0.00237  -0.00137
   D38        2.12063  -0.00007   0.00002  -0.00222  -0.00220   2.11842
   D39       -2.11223  -0.00004   0.00009   0.00060   0.00069  -2.11155
   D40        0.01213  -0.00026   0.00031  -0.00419  -0.00388   0.00825
   D41       -2.15124  -0.00006  -0.00040  -0.00245  -0.00285  -2.15409
   D42       -0.10348  -0.00000  -0.00065  -0.00045  -0.00110  -0.10458
   D43        0.10292   0.00007  -0.00061   0.00037  -0.00025   0.10266
   D44        2.15067   0.00013  -0.00087   0.00236   0.00149   2.15217
   D45        0.09811  -0.00016  -0.00055  -0.00544  -0.00600   0.09211
   D46        2.14751   0.00018   0.00021   0.00228   0.00251   2.15002
   D47       -2.16420   0.00001  -0.00072  -0.00114  -0.00187  -2.16607
   D48       -0.11480   0.00035   0.00004   0.00658   0.00663  -0.10817
   D49        0.00294   0.00001   0.00004  -0.00117  -0.00114   0.00180
   D50       -2.10581   0.00002  -0.00300  -0.00883  -0.01187  -2.11767
   D51        2.11406   0.00010   0.00311   0.00967   0.01282   2.12688
   D52        0.00531   0.00011   0.00006   0.00202   0.00209   0.00741
   D53       -0.00628   0.00025   0.00282   0.00781   0.01062   0.00434
   D54        2.11024   0.00021  -0.00017   0.00407   0.00397   2.11421
   D55       -2.10597  -0.00002   0.00062  -0.00248  -0.00196  -2.10793
   D56        0.01055  -0.00007  -0.00237  -0.00621  -0.00860   0.00195
   D57       -0.09577  -0.00027  -0.00093  -0.00695  -0.00788  -0.10365
   D58       -2.16736   0.00032   0.00059   0.00305   0.00358  -2.16378
   D59        2.15522  -0.00034   0.00117   0.00099   0.00224   2.15746
   D60        0.08363   0.00026   0.00270   0.01099   0.01370   0.09733
   D61        0.00326  -0.00029  -0.00282  -0.00697  -0.00977  -0.00651
   D62       -2.10514  -0.00024   0.00037  -0.00161  -0.00130  -2.10644
   D63        2.12384  -0.00007  -0.00053   0.00004  -0.00040   2.12344
   D64        0.01543  -0.00002   0.00265   0.00540   0.00807   0.02350
   D65        2.16435  -0.00039  -0.00053  -0.00558  -0.00604   2.15830
   D66        0.09393   0.00011   0.00090   0.00403   0.00493   0.09887
   D67       -0.09404  -0.00018  -0.00270  -0.00943  -0.01213  -0.10618
   D68       -2.16446   0.00032  -0.00127   0.00019  -0.00115  -2.16561
   D69       -0.00612   0.00030   0.00273   0.00847   0.01120   0.00507
   D70       -2.11528   0.00016   0.00246   0.00731   0.00973  -2.10555
   D71        2.11002   0.00023  -0.00094   0.00261   0.00170   2.11172
   D72        0.00086   0.00009  -0.00121   0.00144   0.00024   0.00110
   D73        0.07470   0.00021  -0.00183   0.00065  -0.00116   0.07354
   D74        2.15786   0.00033  -0.00234  -0.00273  -0.00503   2.15283
   D75       -2.18071  -0.00017   0.00168   0.00394   0.00560  -2.17511
   D76       -0.09755  -0.00005   0.00117   0.00056   0.00173  -0.09582
   D77        0.00278  -0.00004   0.00012  -0.00184  -0.00172   0.00106
   D78       -2.11221  -0.00002  -0.00054   0.00014  -0.00043  -2.11264
   D79        2.12275   0.00001   0.00068  -0.00033   0.00039   2.12313
   D80        0.00776   0.00003   0.00002   0.00165   0.00167   0.00943
   D81        0.10456  -0.00025   0.00084  -0.00346  -0.00262   0.10193
   D82        2.14795  -0.00009   0.00137   0.00270   0.00408   2.15202
   D83       -2.15215  -0.00014  -0.00038  -0.00470  -0.00509  -2.15724
   D84       -0.10876   0.00002   0.00014   0.00145   0.00161  -0.10715
   D85        0.00342  -0.00024  -0.00289  -0.00632  -0.00919  -0.00577
   D86       -2.10695  -0.00007   0.00091  -0.00067   0.00022  -2.10674
   D87        2.13186  -0.00042  -0.00241  -0.00909  -0.01146   2.12039
   D88        0.02148  -0.00025   0.00139  -0.00345  -0.00206   0.01942
   D89        2.15730  -0.00018  -0.00001  -0.00203  -0.00203   2.15527
   D90        0.10424  -0.00017  -0.00022  -0.00474  -0.00496   0.09928
   D91       -0.10536   0.00008  -0.00121   0.00112  -0.00009  -0.10545
   D92       -2.15842   0.00009  -0.00141  -0.00160  -0.00302  -2.16144
   D93       -0.09428  -0.00016   0.00138   0.00002   0.00137  -0.09291
   D94       -2.17998   0.00006   0.00224   0.00780   0.01000  -2.16999
   D95        2.16197   0.00016  -0.00211  -0.00283  -0.00493   2.15703
   D96        0.07627   0.00039  -0.00125   0.00494   0.00369   0.07996
   D97       -1.89369   0.00009   0.00092   0.00214   0.00301  -1.89069
   D98        0.17820  -0.00022  -0.00074  -0.00657  -0.00731   0.17089
   D99        0.14179   0.00041   0.00162   0.01052   0.01214   0.15393
   D100       2.21368   0.00009  -0.00005   0.00181   0.00182   2.21550
   D101       1.88326   0.00019   0.00090   0.00252   0.00345   1.88671
   D102      -0.18141   0.00020   0.00098   0.00515   0.00614  -0.17527
   D103      -0.13464  -0.00034  -0.00005  -0.00722  -0.00728  -0.14192
   D104      -2.19931  -0.00033   0.00003  -0.00458  -0.00459  -2.20390
   D105       1.88556   0.00011  -0.00106  -0.00360  -0.00464   1.88092
   D106      -0.15582  -0.00021  -0.00158  -0.00831  -0.00988  -0.16571
   D107      -0.16843   0.00011   0.00081   0.00576   0.00655  -0.16187
   D108      -2.20981  -0.00020   0.00029   0.00106   0.00131  -2.20850
   D109      -1.91840   0.00030  -0.00074   0.00118   0.00043  -1.91797
   D110       0.16742  -0.00016  -0.00068  -0.00312  -0.00379   0.16363
   D111       0.17996  -0.00015  -0.00093  -0.00437  -0.00529   0.17466
   D112       2.26578  -0.00061  -0.00087  -0.00867  -0.00952   2.25626
   D113       1.88651   0.00014   0.00062   0.00260   0.00323   1.88974
   D114      -0.14386  -0.00015  -0.00036  -0.00360  -0.00396  -0.14782
   D115      -0.16706   0.00017  -0.00010   0.00371   0.00362  -0.16344
   D116      -2.19743  -0.00012  -0.00108  -0.00249  -0.00357  -2.20100
   D117      -1.90773   0.00005   0.00128   0.00510   0.00635  -1.90138
   D118       0.16932  -0.00008  -0.00070  -0.00398  -0.00467   0.16464
   D119       0.15852   0.00029   0.00162   0.00953   0.01114   0.16966
   D120       2.23557   0.00016  -0.00037   0.00045   0.00012   2.23569
   D121       1.89018  -0.00012  -0.00095  -0.00343  -0.00433   1.88585
   D122      -0.14344  -0.00042  -0.00180  -0.01125  -0.01303  -0.15647
   D123      -0.16592   0.00018   0.00080   0.00596   0.00674  -0.15917
   D124      -2.19954  -0.00012  -0.00005  -0.00187  -0.00196  -2.20150
   D125      -1.91051   0.00007  -0.00022  -0.00048  -0.00072  -1.91123
   D126       0.14928   0.00033   0.00046   0.00742   0.00788   0.15716
   D127       0.18485  -0.00032  -0.00058  -0.00709  -0.00766   0.17719
   D128       2.24464  -0.00006   0.00010   0.00081   0.00095   2.24559
   D129       1.89016  -0.00012   0.00078  -0.00217  -0.00138   1.88878
   D130      -0.14466  -0.00028   0.00054  -0.00397  -0.00342  -0.14808
   D131      -0.17775   0.00014   0.00076   0.00441   0.00516  -0.17259
   D132      -2.21257  -0.00002   0.00052   0.00262   0.00312  -2.20946
   D133      -1.89326  -0.00012  -0.00002  -0.00267  -0.00270  -1.89596
   D134       0.16151   0.00004   0.00083   0.00203   0.00285   0.16436
   D135       0.15529   0.00018   0.00040   0.00217   0.00257   0.15786
   D136       2.21006   0.00034   0.00125   0.00687   0.00812   2.21818
   D137       1.88214   0.00017   0.00020   0.00112   0.00133   1.88347
   D138      -0.17493   0.00020   0.00036   0.00605   0.00641  -0.16851
   D139      -0.15475  -0.00006  -0.00069  -0.00270  -0.00338  -0.15813
   D140      -2.21181  -0.00003  -0.00052   0.00223   0.00170  -2.21011
   D141      -1.90132   0.00002  -0.00025  -0.00071  -0.00097  -1.90229
   D142       0.17895  -0.00020  -0.00033  -0.00511  -0.00544   0.17352
   D143       0.15076   0.00022   0.00038   0.00504   0.00542   0.15618
   D144       2.23103  -0.00000   0.00030   0.00064   0.00095   2.23199
         Item               Value     Threshold  Converged?
 Maximum Force            0.002605     0.000450     NO 
 RMS     Force            0.000422     0.000300     NO 
 Maximum Displacement     0.010127     0.001800     NO 
 RMS     Displacement     0.002062     0.001200     NO 
 Predicted change in Energy=-1.095971D-04
 GradGradGradGradGradGradGradGradGradGradGradGradGradGradGradGradGradGrad

                          Input orientation:                          
 ---------------------------------------------------------------------
 Center     Atomic      Atomic             Coordinates (Angstroms)
 Number     Number       Type             X           Y           Z
 ---------------------------------------------------------------------
      1          6           0       -1.046045   -0.027932    2.196177
      2          6           0       -1.513524   -1.244735    1.628565
      3          6           0       -2.419814   -1.217145    0.533397
      4          6           0       -2.853564    0.031208    0.001220
      5          6           0       -2.386439    1.249197    0.567754
      6          6           0       -1.481585    1.219178    1.665236
      7          6           0        1.346505    0.735251   -0.043625
      8          6           0        1.364643   -0.685133   -0.018175
      9          6           0        0.595665   -1.425435   -0.958788
     10          6           0       -0.200082   -0.738329   -1.922711
     11          6           0       -0.219715    0.681315   -1.947206
     12          6           0        0.557348    1.422024   -1.008691
     13          6           0       -0.259454   -2.014059    1.178194
     14          6           0        0.885355   -1.127434    1.371524
     15          6           0       -0.370564   -2.289063   -0.154733
     16          6           0       -1.728137   -1.968713   -0.601855
     17          6           0        0.481947   -0.029342    2.076660
     18          6           0        0.863435    1.175132    1.341891
     19          6           0       -0.413591    2.290343   -0.214263
     20          6           0       -0.234011    1.975225    1.206037
     21          6           0       -1.700160    2.011396   -0.576403
     22          6           0       -1.674861    1.126426   -1.738344
     23          6           0       -1.654462   -1.177481   -1.710942
     24          6           0       -2.444947    0.030369   -1.472775
 ---------------------------------------------------------------------
                    Distance matrix (angstroms):
                    1          2          3          4          5
     1  C    0.000000
     2  C    1.421735   0.000000
     3  C    2.462988   1.421800   0.000000
     4  C    2.844022   2.464140   1.424689   0.000000
     5  C    2.465659   2.847278   2.466807   1.422204   0.000000
     6  C    1.423685   2.464393   2.845524   2.462224   1.422719
     7  C    3.365034   3.859576   4.281351   4.258904   3.817433
     8  C    3.338664   3.362848   3.861267   4.278643   4.260934
     9  C    3.821260   3.343011   3.370922   3.865307   4.286832
    10  C    4.264452   3.820096   3.344987   3.366699   3.864302
    11  C    4.284095   4.262598   3.820729   3.340083   3.367819
    12  C    3.865801   4.284300   4.266936   3.819503   3.343790
    13  C    2.366372   1.538631   2.391232   3.506821   3.942784
    14  C    2.370498   2.415460   3.410960   4.147252   4.122991
    15  C    3.331030   2.361594   2.412872   3.401950   4.135822
    16  C    3.472876   2.354777   1.527111   2.372756   3.486588
    17  C    1.532659   2.379049   3.494675   3.928963   3.484121
    18  C    2.413148   3.404096   4.142026   4.113641   3.341625
    19  C    3.403618   4.135534   4.109307   3.332205   2.363825
    20  C    2.377481   3.490534   3.927010   3.477477   2.359549
    21  C    3.503416   3.936890   3.488988   2.363288   1.536562
    22  C    4.148302   4.121227   3.347848   2.369583   2.416507
    23  C    4.117914   3.343156   2.371580   2.414595   3.408374
    24  C    3.927026   3.480194   2.362552   1.529585   2.377545
                    6          7          8          9         10
     6  C    0.000000
     7  C    3.339533   0.000000
     8  C    3.815925   1.420728   0.000000
     9  C    4.265495   2.463706   1.422718   0.000000
    10  C    4.283391   2.845053   2.465451   1.426350   0.000000
    11  C    3.864110   2.465679   2.845792   2.465808   1.419990
    12  C    3.368720   1.423297   2.464336   2.848154   2.465006
    13  C    3.490650   3.410375   2.415582   2.375795   3.353599
    14  C    3.345932   2.384304   1.535126   2.367083   3.490209
    15  C    4.105412   3.479532   2.366893   1.525109   2.357877
    16  C    3.919584   4.132368   3.399051   2.413008   2.365050
    17  C    2.362949   2.414058   2.365914   3.343046   4.118591
    18  C    2.367617   1.531831   2.358298   3.482495   3.930652
    19  C    2.412575   2.354859   3.471890   3.921724   3.483853
    20  C    1.529350   2.365844   3.336449   4.115740   4.141689
    21  C    2.387536   3.345828   4.120182   4.150763   3.409364
    22  C    3.410325   3.486221   3.934375   3.503567   2.384590
    23  C    4.143964   3.929923   3.496121   2.385433   1.533924
    24  C    3.491195   4.112716   4.140142   3.410112   2.415110
                   11         12         13         14         15
    11  C    0.000000
    12  C    1.425934   0.000000
    13  C    4.127317   4.154070   0.000000
    14  C    3.937858   3.503248   1.460845   0.000000
    15  C    3.472586   3.919493   1.365528   2.292635   0.000000
    16  C    3.332860   4.109265   2.308173   3.381171   1.464768
    17  C    4.145945   3.410504   2.301309   1.365929   3.288196
    18  C    3.497889   2.383249   3.385058   2.302861   3.970300
    19  C    2.372688   1.525718   4.526652   3.985371   4.579995
    20  C    3.408424   2.416050   3.989463   3.302553   4.478224
    21  C    2.416595   2.372883   4.621530   4.509053   4.521015
    22  C    1.535967   2.366966   4.513560   4.615828   3.984291
    23  C    2.359966   3.484636   3.315573   3.994343   2.303431
    24  C    2.366531   3.341534   3.997963   4.530061   3.379358
                   16         17         18         19         20
    16  C    0.000000
    17  C    3.977446   0.000000
    18  C    4.514217   1.461566   0.000000
    19  C    4.474128   3.381014   2.301327   0.000000
    20  C    4.588632   2.299753   1.364915   1.465879   0.000000
    21  C    3.980289   3.995616   3.309261   1.365363   2.308245
    22  C    3.297625   4.532315   3.991637   2.295284   3.386132
    23  C    1.364387   4.497599   4.603736   3.975627   4.523937
    24  C    2.295354   4.600952   4.492017   3.289033   3.980796
                   21         22         23         24
    21  C    0.000000
    22  C    1.460794   0.000000
    23  C    3.384997   2.304160   0.000000
    24  C    2.298403   1.365613   1.463042   0.000000
 Stoichiometry    C24
 Framework group  C1[X(C24)]
 Deg. of freedom    66
 Full point group                 C1      NOp   1
 Largest Abelian subgroup         C1      NOp   1
 Largest concise Abelian subgroup C1      NOp   1
                         Standard orientation:                         
 ---------------------------------------------------------------------
 Center     Atomic      Atomic             Coordinates (Angstroms)
 Number     Number       Type             X           Y           Z
 ---------------------------------------------------------------------
      1          6           0        1.258046    0.670989    1.633083
      2          6           0        1.210568   -0.749953    1.633849
      3          6           0       -0.043397   -1.420066    1.639816
      4          6           0       -1.252137   -0.665955    1.638175
      5          6           0       -1.206162    0.755504    1.637000
      6          6           0        0.049756    1.423926    1.633609
      7          6           0        0.697905    1.233897   -1.636906
      8          6           0        1.418747    0.009621   -1.635471
      9          6           0        0.720047   -1.229709   -1.637992
     10          6           0       -0.706256   -1.240502   -1.633915
     11          6           0       -1.426919   -0.016975   -1.633588
     12          6           0       -0.725360    1.224426   -1.638649
     13          6           0        1.976303   -1.202341    0.378310
     14          6           0        2.307264   -0.000700   -0.383656
     15          6           0        1.149686   -1.979635   -0.381418
     16          6           0       -0.059677   -2.289727    0.384630
     17          6           0        2.023604    1.098480    0.376017
     18          6           0        1.150701    1.990664   -0.384395
     19          6           0       -1.150605    1.980795   -0.383704
     20          6           0        0.061038    2.297312    0.378229
     21          6           0       -1.970673    1.201803    0.381069
     22          6           0       -2.308558   -0.000975   -0.375951
     23          6           0       -1.153687   -1.994822   -0.375452
     24          6           0       -2.020237   -1.096057    0.387309
 ---------------------------------------------------------------------
 Rotational constants (GHZ):      0.5426753      0.5403497      0.4795133
 Standard basis: 6-31G(d,p) (6D, 7F)
 There are   360 symmetry adapted cartesian basis functions of A   symmetry.
 There are   360 symmetry adapted basis functions of A   symmetry.
   360 basis functions,   672 primitive gaussians,   360 cartesian basis functions
    72 alpha electrons       72 beta electrons
       nuclear repulsion energy      1906.0473686794 Hartrees.
 NAtoms=   24 NActive=   24 NUniq=   24 SFac= 1.00D+00 NAtFMM=   60 NAOKFM=F Big=F
 Integral buffers will be    131072 words long.
 Raffenetti 2 integral format.
 Two-electron integral symmetry is turned on.
 One-electron integrals computed using PRISM.
 NBasis=   360 RedAO= T EigKep=  5.41D-04  NBF=   360
 NBsUse=   360 1.00D-06 EigRej= -1.00D+00 NBFU=   360
 Initial guess from the checkpoint file:  "/scratch/tmp/3419169/Gau-146785.chk"
 B after Tr=     0.000000    0.000000    0.000000
         Rot=    0.999736   -0.000596   -0.001362    0.022933 Ang=  -2.63 deg.
 Requested convergence on RMS density matrix=1.00D-08 within  64 cycles.
 Requested convergence on MAX density matrix=1.00D-06.
 Requested convergence on             energy=1.00D-06.
 No special actions if energy rises.
 SCF Done:  E(RB3LYP) =  -913.839667626     A.U. after   15 cycles
            NFock= 15  Conv=0.23D-08     -V/T= 2.0090
 QCSCF skips out because SCF is already converged.
 Calling FoFJK, ICntrl=      2127 FMM=F ISym2X=0 I1Cent= 0 IOpClX= 0 NMat=1 NMatS=1 NMatT=0.
 ***** Axes restored to original set *****
 -------------------------------------------------------------------
 Center     Atomic                   Forces (Hartrees/Bohr)
 Number     Number              X              Y              Z
 -------------------------------------------------------------------
      1        6           0.000657875    0.000082521    0.000274407
      2        6           0.001361448   -0.000722066    0.000560371
      3        6          -0.000279601    0.000499517   -0.000475550
      4        6          -0.000087626   -0.000103776    0.000461325
      5        6           0.000296657    0.000138309   -0.000834430
      6        6          -0.000060562    0.000509023    0.000154790
      7        6           0.000612735    0.001115528    0.000225956
      8        6           0.001149127   -0.001058226    0.000099287
      9        6          -0.000800055    0.001626470   -0.000188954
     10        6          -0.000183443   -0.001258269    0.000637964
     11        6           0.000132281    0.001395601    0.000238950
     12        6          -0.000925829   -0.001547367   -0.000109499
     13        6          -0.000961802    0.001253922   -0.000641288
     14        6          -0.000117372   -0.000018381   -0.000235796
     15        6          -0.001175715   -0.000958511    0.000164069
     16        6           0.000681969   -0.001189407   -0.000162941
     17        6          -0.001063868    0.000027328   -0.000461895
     18        6           0.000017437    0.000104659   -0.000134876
     19        6          -0.000532159    0.000737383    0.000979901
     20        6          -0.000097341   -0.000391736   -0.001051782
     21        6           0.000509192   -0.000498026    0.000412483
     22        6           0.000426140    0.000033720    0.000297488
     23        6          -0.000000622    0.001166723    0.000262239
     24        6           0.000441133   -0.000944939   -0.000472219
 -------------------------------------------------------------------
 Cartesian Forces:  Max     0.001626470 RMS     0.000698854

 GradGradGradGradGradGradGradGradGradGradGradGradGradGradGradGradGradGrad
 Berny optimization.
 Using GEDIIS/GDIIS optimizer.
 FormGI is forming the generalized inverse of G from B-inverse, IUseBI=4.
 Internal  Forces:  Max     0.000922164 RMS     0.000205495
 Search for a local minimum.
 Step number   5 out of a maximum of  144
 All quantities printed in internal units (Hartrees-Bohrs-Radians)
 Mixed Optimization -- En-DIIS/RFO-DIIS
 Swapping is turned off.
 Update second derivatives using D2CorX and points    3    4    5
 DE= -1.59D-04 DEPred=-1.10D-04 R= 1.45D+00
 TightC=F SS=  1.41D+00  RLast= 7.12D-02 DXNew= 1.4270D+00 2.1373D-01
 Trust test= 1.45D+00 RLast= 7.12D-02 DXMaxT set to 8.49D-01
 ITU=  1  1  1  1  0
     Eigenvalues ---    0.02944   0.03680   0.04013   0.04305   0.04455
     Eigenvalues ---    0.04509   0.04873   0.05099   0.05120   0.05759
     Eigenvalues ---    0.05945   0.06179   0.06466   0.06957   0.07099
     Eigenvalues ---    0.07338   0.07380   0.08202   0.08274   0.08413
     Eigenvalues ---    0.08443   0.08511   0.08608   0.09243   0.09417
     Eigenvalues ---    0.09639   0.09702   0.10070   0.11669   0.12177
     Eigenvalues ---    0.16138   0.16198   0.17373   0.17699   0.17921
     Eigenvalues ---    0.18033   0.18722   0.21660   0.21697   0.22762
     Eigenvalues ---    0.22893   0.25774   0.27193   0.28527   0.29047
     Eigenvalues ---    0.30633   0.31496   0.32109   0.32665   0.33377
     Eigenvalues ---    0.35011   0.35383   0.36005   0.36631   0.36854
     Eigenvalues ---    0.37595   0.37885   0.38787   0.39240   0.39592
     Eigenvalues ---    0.40713   0.41605   0.41953   0.42407   0.42954
     Eigenvalues ---    0.46158
 En-DIIS/RFO-DIIS IScMMF=        0 using points:     5    4
 RFO step:  Lambda=-2.46236657D-05.
 DidBck=F Rises=F RFO-DIIS coefs:    1.08305   -0.08305
 Iteration  1 RMS(Cart)=  0.00097716 RMS(Int)=  0.00000410
 Iteration  2 RMS(Cart)=  0.00000186 RMS(Int)=  0.00000352
 Iteration  3 RMS(Cart)=  0.00000000 RMS(Int)=  0.00000352
 Variable       Old X    -DE/DX   Delta X   Delta X   Delta X     New X
                                 (Linear)    (Quad)   (Total)
    R1        2.68669   0.00007  -0.00012   0.00035   0.00022   2.68691
    R2        2.69037   0.00014  -0.00011   0.00044   0.00032   2.69070
    R3        2.89631  -0.00071  -0.00018  -0.00246  -0.00264   2.89366
    R4        2.68681   0.00043  -0.00006   0.00131   0.00124   2.68806
    R5        2.90759  -0.00092  -0.00033  -0.00399  -0.00432   2.90327
    R6        2.69227  -0.00029  -0.00019  -0.00059  -0.00078   2.69149
    R7        2.88582   0.00009   0.00016   0.00172   0.00188   2.88770
    R8        2.68758   0.00000   0.00003   0.00004   0.00007   2.68765
    R9        2.89050   0.00011  -0.00004   0.00039   0.00035   2.89085
   R10        2.68855   0.00002  -0.00015  -0.00002  -0.00016   2.68839
   R11        2.90368  -0.00055  -0.00013  -0.00207  -0.00220   2.90148
   R12        2.89005  -0.00024   0.00010  -0.00011  -0.00000   2.89005
   R13        2.68479   0.00043  -0.00108   0.00395   0.00288   2.68767
   R14        2.68964  -0.00019   0.00042   0.00039   0.00081   2.69045
   R15        2.89474  -0.00036  -0.00041  -0.00108  -0.00149   2.89325
   R16        2.68855   0.00004   0.00043   0.00105   0.00147   2.69002
   R17        2.90097  -0.00033  -0.00028  -0.00131  -0.00159   2.89938
   R18        2.69541  -0.00074  -0.00016  -0.00253  -0.00269   2.69272
   R19        2.88204   0.00052   0.00083   0.00232   0.00315   2.88519
   R20        2.68339   0.00054   0.00003   0.00147   0.00150   2.68489
   R21        2.89870  -0.00034  -0.00037  -0.00201  -0.00238   2.89632
   R22        2.69463  -0.00074  -0.00011  -0.00199  -0.00210   2.69252
   R23        2.90256  -0.00057  -0.00052  -0.00231  -0.00284   2.89972
   R24        2.88319   0.00030   0.00061   0.00142   0.00203   2.88522
   R25        2.76060   0.00012   0.00005  -0.00032  -0.00027   2.76033
   R26        2.58047  -0.00008  -0.00000  -0.00050  -0.00050   2.57998
   R27        2.58123   0.00021   0.00006   0.00031   0.00037   2.58160
   R28        2.76801  -0.00092  -0.00055  -0.00210  -0.00264   2.76537
   R29        2.57832   0.00014   0.00027   0.00098   0.00126   2.57957
   R30        2.76196   0.00011   0.00029   0.00001   0.00030   2.76226
   R31        2.57932  -0.00004   0.00015   0.00017   0.00032   2.57963
   R32        2.77011  -0.00084   0.00008  -0.00204  -0.00196   2.76815
   R33        2.58016  -0.00041  -0.00006  -0.00060  -0.00066   2.57950
   R34        2.76050  -0.00011   0.00013  -0.00067  -0.00055   2.75995
   R35        2.58063   0.00021   0.00017   0.00078   0.00095   2.58159
   R36        2.76475  -0.00063  -0.00032  -0.00245  -0.00278   2.76197
    A1        2.09466   0.00004  -0.00004   0.00044   0.00040   2.09506
    A2        1.87118  -0.00005   0.00006  -0.00081  -0.00075   1.87043
    A3        1.85117  -0.00000   0.00005  -0.00020  -0.00015   1.85103
    A4        2.09498  -0.00009   0.00022  -0.00014   0.00008   2.09506
    A5        1.85126   0.00023  -0.00016   0.00054   0.00038   1.85164
    A6        1.87945  -0.00021  -0.00006  -0.00149  -0.00155   1.87790
    A7        2.09300  -0.00005  -0.00018  -0.00050  -0.00067   2.09233
    A8        1.84872  -0.00007  -0.00013   0.00025   0.00012   1.84884
    A9        1.86653   0.00012   0.00004   0.00103   0.00107   1.86761
   A10        2.09626   0.00015  -0.00004   0.00042   0.00038   2.09664
   A11        1.85267  -0.00010   0.00013  -0.00056  -0.00043   1.85224
   A12        1.87193  -0.00006   0.00004  -0.00045  -0.00041   1.87151
   A13        2.09222   0.00001   0.00018   0.00053   0.00071   2.09293
   A14        1.84927   0.00020   0.00004   0.00090   0.00094   1.85022
   A15        1.87633  -0.00016  -0.00005  -0.00030  -0.00035   1.87599
   A16        2.09524  -0.00005  -0.00015  -0.00075  -0.00090   2.09434
   A17        1.87074  -0.00000  -0.00012  -0.00061  -0.00074   1.87000
   A18        1.85123  -0.00006  -0.00013  -0.00075  -0.00087   1.85036
   A19        2.09628  -0.00023   0.00026  -0.00162  -0.00136   2.09492
   A20        1.84930   0.00009   0.00029   0.00016   0.00045   1.84975
   A21        1.87536  -0.00013   0.00055  -0.00076  -0.00022   1.87514
   A22        2.09610  -0.00013   0.00003  -0.00198  -0.00195   2.09415
   A23        1.87578  -0.00007   0.00026  -0.00080  -0.00054   1.87524
   A24        1.85442  -0.00013   0.00048  -0.00195  -0.00148   1.85294
   A25        2.09171   0.00022  -0.00017   0.00239   0.00222   2.09393
   A26        1.86349   0.00019  -0.00038   0.00260   0.00221   1.86570
   A27        1.85004  -0.00011  -0.00020  -0.00017  -0.00037   1.84966
   A28        2.09552  -0.00013   0.00015  -0.00039  -0.00024   2.09528
   A29        1.87313   0.00014   0.00008   0.00032   0.00040   1.87353
   A30        1.84990   0.00004  -0.00004   0.00042   0.00039   1.85029
   A31        2.09490   0.00001  -0.00009  -0.00085  -0.00095   2.09395
   A32        1.87599  -0.00018  -0.00012  -0.00105  -0.00118   1.87481
   A33        1.85068   0.00016   0.00005  -0.00022  -0.00017   1.85051
   A34        2.09183   0.00027  -0.00017   0.00248   0.00230   2.09413
   A35        1.84877   0.00001  -0.00048   0.00065   0.00017   1.84894
   A36        1.86664   0.00001  -0.00002   0.00113   0.00111   1.86774
   A37        1.87185  -0.00004   0.00041   0.00116   0.00156   1.87340
   A38        1.89663   0.00023   0.00023   0.00272   0.00294   1.89957
   A39        1.89144   0.00014   0.00054   0.00228   0.00282   1.89426
   A40        1.87521   0.00017  -0.00042   0.00069   0.00027   1.87548
   A41        1.90489   0.00001  -0.00033   0.00015  -0.00018   1.90470
   A42        1.90159  -0.00012  -0.00041  -0.00145  -0.00186   1.89973
   A43        1.92734  -0.00038  -0.00037  -0.00402  -0.00439   1.92295
   A44        1.87801   0.00000   0.00006  -0.00012  -0.00006   1.87795
   A45        1.90639   0.00015  -0.00012  -0.00046  -0.00058   1.90581
   A46        1.87601  -0.00008   0.00018  -0.00058  -0.00041   1.87560
   A47        1.92127  -0.00025  -0.00034  -0.00255  -0.00289   1.91838
   A48        1.90172   0.00002  -0.00009  -0.00071  -0.00080   1.90092
   A49        1.91286   0.00002   0.00022   0.00117   0.00139   1.91425
   A50        1.87409   0.00017   0.00027   0.00190   0.00216   1.87625
   A51        1.90275   0.00002  -0.00002   0.00082   0.00080   1.90355
   A52        1.87588  -0.00004  -0.00037  -0.00048  -0.00085   1.87503
   A53        1.90907   0.00010  -0.00039   0.00005  -0.00034   1.90873
   A54        1.89995  -0.00013  -0.00044  -0.00173  -0.00216   1.89779
   A55        1.87989  -0.00008  -0.00013  -0.00147  -0.00160   1.87829
   A56        1.92333  -0.00022  -0.00021  -0.00229  -0.00250   1.92083
   A57        1.90552   0.00013  -0.00043  -0.00091  -0.00134   1.90418
   A58        1.91371  -0.00000   0.00033   0.00116   0.00148   1.91519
   A59        1.87262   0.00002   0.00031   0.00118   0.00149   1.87410
   A60        1.89753   0.00010   0.00030   0.00111   0.00141   1.89893
   A61        1.90149   0.00010   0.00040   0.00136   0.00177   1.90326
   A62        1.87498  -0.00002  -0.00002  -0.00015  -0.00017   1.87480
   A63        1.89486   0.00004  -0.00005   0.00078   0.00074   1.89560
   A64        1.87562  -0.00000   0.00020   0.00038   0.00057   1.87620
   A65        1.90508   0.00000   0.00031   0.00059   0.00090   1.90598
   A66        1.89841   0.00012  -0.00003   0.00050   0.00047   1.89888
   A67        1.90652  -0.00003   0.00021   0.00086   0.00107   1.90759
   A68        1.87381  -0.00001   0.00029   0.00033   0.00062   1.87444
   A69        1.89364   0.00013   0.00024   0.00163   0.00187   1.89550
   A70        1.91517  -0.00023  -0.00008  -0.00081  -0.00089   1.91428
   A71        1.87723   0.00008  -0.00014   0.00006  -0.00008   1.87715
   A72        1.90316   0.00016  -0.00035  -0.00006  -0.00041   1.90275
    D1       -0.00380   0.00001   0.00000   0.00017   0.00018  -0.00362
    D2        2.12759  -0.00014  -0.00005  -0.00147  -0.00153   2.12606
    D3       -2.11386   0.00003  -0.00009   0.00083   0.00074  -2.11312
    D4        0.01753  -0.00012  -0.00015  -0.00082  -0.00097   0.01656
    D5        0.00170  -0.00011  -0.00021  -0.00122  -0.00143   0.00028
    D6       -2.10846   0.00001   0.00018   0.00084   0.00102  -2.10744
    D7        2.12164  -0.00015  -0.00011  -0.00218  -0.00229   2.11935
    D8        0.01147  -0.00004   0.00027  -0.00011   0.00016   0.01163
    D9        0.08951  -0.00000  -0.00021  -0.00118  -0.00139   0.08812
   D10        2.15403   0.00012   0.00004   0.00153   0.00157   2.15560
   D11       -2.16820  -0.00001  -0.00023  -0.00108  -0.00132  -2.16952
   D12       -0.10368   0.00012   0.00002   0.00162   0.00164  -0.10204
   D13        0.00555   0.00007   0.00021   0.00018   0.00039   0.00593
   D14        2.11603   0.00014   0.00003   0.00143   0.00147   2.11750
   D15       -2.11200   0.00001   0.00031   0.00084   0.00115  -2.11085
   D16       -0.00151   0.00007   0.00014   0.00210   0.00223   0.00072
   D17       -0.11132   0.00020   0.00042   0.00241   0.00284  -0.10848
   D18       -2.15253  -0.00006  -0.00055  -0.00231  -0.00287  -2.15539
   D19        2.15207   0.00011   0.00056   0.00164   0.00220   2.15427
   D20        0.11086  -0.00015  -0.00042  -0.00309  -0.00350   0.10736
   D21       -0.00522  -0.00005  -0.00021   0.00052   0.00030  -0.00492
   D22        2.11811  -0.00012  -0.00008  -0.00028  -0.00036   2.11775
   D23       -2.10684  -0.00002   0.00005  -0.00035  -0.00031  -2.10715
   D24        0.01649  -0.00009   0.00018  -0.00115  -0.00097   0.01552
   D25       -0.10015   0.00001   0.00014  -0.00052  -0.00037  -0.10052
   D26       -2.16919   0.00017   0.00033   0.00211   0.00243  -2.16676
   D27        2.15112  -0.00003  -0.00013  -0.00033  -0.00045   2.15067
   D28        0.08208   0.00013   0.00006   0.00229   0.00235   0.08443
   D29        0.00313  -0.00005   0.00001  -0.00156  -0.00155   0.00158
   D30        2.12669  -0.00009   0.00011  -0.00082  -0.00072   2.12597
   D31       -2.11073   0.00004  -0.00017  -0.00071  -0.00088  -2.11161
   D32        0.01283   0.00000  -0.00007   0.00002  -0.00005   0.01278
   D33       -2.17054  -0.00011   0.00017   0.00008   0.00024  -2.17030
   D34       -0.10245  -0.00000  -0.00038  -0.00041  -0.00079  -0.10324
   D35        0.09055  -0.00004   0.00023  -0.00006   0.00017   0.09072
   D36        2.15864   0.00007  -0.00032  -0.00054  -0.00086   2.15778
   D37       -0.00137   0.00013   0.00020   0.00192   0.00211   0.00074
   D38        2.11842   0.00004  -0.00018  -0.00006  -0.00024   2.11818
   D39       -2.11155  -0.00001   0.00006   0.00057   0.00063  -2.11092
   D40        0.00825  -0.00010  -0.00032  -0.00141  -0.00173   0.00652
   D41       -2.15409  -0.00008  -0.00024  -0.00162  -0.00186  -2.15594
   D42       -0.10458   0.00002  -0.00009  -0.00005  -0.00014  -0.10472
   D43        0.10266  -0.00003  -0.00002  -0.00058  -0.00060   0.10206
   D44        2.15217   0.00006   0.00012   0.00099   0.00111   2.15328
   D45        0.09211  -0.00005  -0.00050  -0.00160  -0.00210   0.09001
   D46        2.15002   0.00008   0.00021   0.00102   0.00123   2.15124
   D47       -2.16607   0.00005  -0.00016   0.00017   0.00001  -2.16606
   D48       -0.10817   0.00018   0.00055   0.00279   0.00334  -0.10483
   D49        0.00180  -0.00003  -0.00009  -0.00136  -0.00146   0.00035
   D50       -2.11767   0.00030  -0.00099   0.00341   0.00243  -2.11525
   D51        2.12688  -0.00030   0.00107  -0.00338  -0.00231   2.12458
   D52        0.00741   0.00003   0.00017   0.00140   0.00158   0.00898
   D53        0.00434  -0.00015   0.00088  -0.00183  -0.00094   0.00339
   D54        2.11421   0.00005   0.00033   0.00190   0.00224   2.11645
   D55       -2.10793   0.00001  -0.00016  -0.00023  -0.00040  -2.10833
   D56        0.00195   0.00022  -0.00071   0.00350   0.00278   0.00473
   D57       -0.10365   0.00001  -0.00065  -0.00157  -0.00223  -0.10588
   D58       -2.16378   0.00014   0.00030   0.00073   0.00102  -2.16277
   D59        2.15746  -0.00030   0.00019  -0.00393  -0.00374   2.15373
   D60        0.09733  -0.00018   0.00114  -0.00163  -0.00049   0.09684
   D61       -0.00651   0.00017  -0.00081   0.00320   0.00239  -0.00412
   D62       -2.10644   0.00001  -0.00011  -0.00039  -0.00051  -2.10695
   D63        2.12344  -0.00012  -0.00003  -0.00097  -0.00099   2.12245
   D64        0.02350  -0.00029   0.00067  -0.00455  -0.00388   0.01962
   D65        2.15830  -0.00011  -0.00050  -0.00202  -0.00252   2.15579
   D66        0.09887  -0.00007   0.00041  -0.00077  -0.00036   0.09851
   D67       -0.10618   0.00018  -0.00101   0.00219   0.00118  -0.10500
   D68       -2.16561   0.00022  -0.00010   0.00344   0.00334  -2.16227
   D69        0.00507  -0.00013   0.00093  -0.00184  -0.00091   0.00416
   D70       -2.10555  -0.00022   0.00081  -0.00242  -0.00161  -2.10716
   D71        2.11172   0.00018   0.00014   0.00309   0.00323   2.11495
   D72        0.00110   0.00009   0.00002   0.00252   0.00253   0.00363
   D73        0.07354   0.00031  -0.00010   0.00566   0.00556   0.07911
   D74        2.15283   0.00027  -0.00042   0.00275   0.00234   2.15517
   D75       -2.17511  -0.00000   0.00047   0.00130   0.00175  -2.17336
   D76       -0.09582  -0.00004   0.00014  -0.00162  -0.00148  -0.09730
   D77        0.00106  -0.00005  -0.00014  -0.00134  -0.00148  -0.00042
   D78       -2.11264  -0.00012  -0.00004   0.00048   0.00044  -2.11220
   D79        2.12313   0.00008   0.00003  -0.00081  -0.00078   2.12236
   D80        0.00943   0.00001   0.00014   0.00101   0.00115   0.01058
   D81        0.10193  -0.00016  -0.00022  -0.00279  -0.00301   0.09892
   D82        2.15202  -0.00003   0.00034  -0.00021   0.00013   2.15215
   D83       -2.15724  -0.00012  -0.00042  -0.00279  -0.00321  -2.16046
   D84       -0.10715   0.00002   0.00013  -0.00021  -0.00008  -0.10723
   D85       -0.00577   0.00019  -0.00076   0.00317   0.00241  -0.00336
   D86       -2.10674  -0.00002   0.00002  -0.00036  -0.00035  -2.10709
   D87        2.12039   0.00009  -0.00095   0.00097   0.00002   2.12041
   D88        0.01942  -0.00011  -0.00017  -0.00257  -0.00274   0.01668
   D89        2.15527   0.00007  -0.00017  -0.00056  -0.00073   2.15455
   D90        0.09928  -0.00008  -0.00041  -0.00168  -0.00210   0.09719
   D91       -0.10545   0.00006  -0.00001   0.00129   0.00129  -0.10416
   D92       -2.16144  -0.00008  -0.00025   0.00017  -0.00008  -2.16152
   D93       -0.09291  -0.00021   0.00011  -0.00426  -0.00414  -0.09705
   D94       -2.16999  -0.00020   0.00083  -0.00099  -0.00016  -2.17015
   D95        2.15703   0.00012  -0.00041  -0.00016  -0.00057   2.15647
   D96        0.07996   0.00014   0.00031   0.00311   0.00342   0.08337
   D97       -1.89069  -0.00028   0.00025  -0.00319  -0.00295  -1.89363
   D98        0.17089  -0.00023  -0.00061  -0.00341  -0.00402   0.16687
   D99        0.15393   0.00005   0.00101   0.00181   0.00282   0.15675
   D100       2.21550   0.00010   0.00015   0.00159   0.00175   2.21725
   D101       1.88671  -0.00003   0.00029  -0.00023   0.00008   1.88679
   D102      -0.17527   0.00010   0.00051   0.00258   0.00310  -0.17217
   D103      -0.14192  -0.00018  -0.00060  -0.00429  -0.00489  -0.14681
   D104      -2.20390  -0.00005  -0.00038  -0.00148  -0.00187  -2.20578
   D105       1.88092   0.00029  -0.00039   0.00303   0.00264   1.88356
   D106      -0.16571   0.00007  -0.00082  -0.00041  -0.00123  -0.16693
   D107      -0.16187   0.00015   0.00054   0.00293   0.00347  -0.15840
   D108      -2.20850  -0.00007   0.00011  -0.00050  -0.00040  -2.20889
   D109      -1.91797   0.00026   0.00004   0.00348   0.00351  -1.91445
   D110       0.16363  -0.00008  -0.00031  -0.00030  -0.00061   0.16302
   D111       0.17466  -0.00011  -0.00044  -0.00168  -0.00211   0.17255
   D112       2.25626  -0.00044  -0.00079  -0.00545  -0.00624   2.25002
   D113       1.88974  -0.00010   0.00027  -0.00087  -0.00060   1.88914
   D114      -0.14782  -0.00014  -0.00033  -0.00265  -0.00298  -0.15080
   D115      -0.16344   0.00013   0.00030   0.00174   0.00204  -0.16140
   D116      -2.20100   0.00008  -0.00030  -0.00004  -0.00034  -2.20134
   D117      -1.90138  -0.00018   0.00053  -0.00170  -0.00118  -1.90256
   D118       0.16464  -0.00016  -0.00039  -0.00284  -0.00323   0.16141
   D119       0.16966  -0.00006   0.00093   0.00121   0.00213   0.17180
   D120       2.23569  -0.00004   0.00001   0.00007   0.00008   2.23578
   D121       1.88585   0.00009  -0.00036   0.00135   0.00099   1.88684
   D122      -0.15647   0.00000  -0.00108  -0.00136  -0.00244  -0.15892
   D123      -0.15917   0.00016   0.00056   0.00288   0.00344  -0.15574
   D124      -2.20150   0.00007  -0.00016   0.00017   0.00000  -2.20149
   D125      -1.91123   0.00004  -0.00006   0.00074   0.00067  -1.91056
   D126       0.15716   0.00010   0.00065   0.00337   0.00402   0.16119
   D127       0.17719  -0.00020  -0.00064  -0.00337  -0.00401   0.17318
   D128       2.24559  -0.00013   0.00008  -0.00074  -0.00066   2.24493
   D129       1.88878  -0.00003  -0.00011  -0.00122  -0.00133   1.88745
   D130      -0.14808  -0.00009  -0.00028  -0.00222  -0.00250  -0.15058
   D131      -0.17259   0.00012   0.00043   0.00246   0.00289  -0.16971
   D132      -2.20946   0.00006   0.00026   0.00146   0.00172  -2.20774
   D133      -1.89596  -0.00010  -0.00022  -0.00112  -0.00134  -1.89730
   D134       0.16436  -0.00003   0.00024   0.00006   0.00030   0.16466
   D135       0.15786   0.00004   0.00021   0.00083   0.00104   0.15891
   D136       2.21818   0.00010   0.00067   0.00200   0.00268   2.22086
   D137       1.88347   0.00012   0.00011   0.00106   0.00118   1.88465
   D138      -0.16851   0.00006   0.00053   0.00149   0.00202  -0.16649
   D139      -0.15813   0.00005  -0.00028   0.00000  -0.00028  -0.15841
   D140      -2.21011  -0.00001   0.00014   0.00043   0.00057  -2.20954
   D141      -1.90229   0.00008  -0.00008   0.00004  -0.00004  -1.90233
   D142       0.17352  -0.00006  -0.00045  -0.00092  -0.00137   0.17214
   D143       0.15618   0.00011   0.00045   0.00211   0.00256   0.15874
   D144       2.23199  -0.00004   0.00008   0.00115   0.00123   2.23322
         Item               Value     Threshold  Converged?
 Maximum Force            0.000922     0.000450     NO 
 RMS     Force            0.000205     0.000300     YES
 Maximum Displacement     0.004977     0.001800     NO 
 RMS     Displacement     0.000977     0.001200     YES
 Predicted change in Energy=-3.387618D-05
 GradGradGradGradGradGradGradGradGradGradGradGradGradGradGradGradGradGrad

                          Input orientation:                          
 ---------------------------------------------------------------------
 Center     Atomic      Atomic             Coordinates (Angstroms)
 Number     Number       Type             X           Y           Z
 ---------------------------------------------------------------------
      1          6           0       -1.045812   -0.027480    2.196021
      2          6           0       -1.512955   -1.244631    1.628586
      3          6           0       -2.419947   -1.217627    0.533130
      4          6           0       -2.853391    0.030538    0.001364
      5          6           0       -2.385813    1.248652    0.567349
      6          6           0       -1.481911    1.219825    1.665535
      7          6           0        1.347603    0.736279   -0.042910
      8          6           0        1.366484   -0.685622   -0.017625
      9          6           0        0.594477   -1.424219   -0.958277
     10          6           0       -0.200724   -0.738394   -1.921457
     11          6           0       -0.219711    0.682035   -1.946938
     12          6           0        0.556585    1.421293   -1.008335
     13          6           0       -0.261009   -2.011663    1.176198
     14          6           0        0.885228   -1.127363    1.370642
     15          6           0       -0.372488   -2.291149   -0.155496
     16          6           0       -1.728772   -1.971347   -0.602340
     17          6           0        0.480640   -0.028809    2.074765
     18          6           0        0.864425    1.176163    1.341696
     19          6           0       -0.413574    2.292190   -0.213713
     20          6           0       -0.234179    1.974817    1.205037
     21          6           0       -1.699317    2.010506   -0.575347
     22          6           0       -1.673538    1.125824   -1.737133
     23          6           0       -1.653989   -1.176941   -1.709901
     24          6           0       -2.444370    0.029388   -1.472712
 ---------------------------------------------------------------------
                    Distance matrix (angstroms):
                    1          2          3          4          5
     1  C    0.000000
     2  C    1.421852   0.000000
     3  C    2.463717   1.422459   0.000000
     4  C    2.843804   2.463874   1.424277   0.000000
     5  C    2.465093   2.846852   2.466753   1.422241   0.000000
     6  C    1.423857   2.464929   2.846652   2.462687   1.422632
     7  C    3.365200   3.860142   4.282991   4.260092   3.817504
     8  C    3.339543   3.363580   3.863084   4.280255   4.261847
     9  C    3.819819   3.341464   3.369529   3.863291   4.284145
    10  C    4.263003   3.818513   3.343593   3.365285   3.862270
    11  C    4.283685   4.262499   3.821059   3.340150   3.366704
    12  C    3.864519   4.282931   4.266117   3.818589   3.342198
    13  C    2.364939   1.536347   2.388523   3.503036   3.938926
    14  C    2.370634   2.414864   3.410829   4.146435   4.121945
    15  C    3.332745   2.361951   2.412208   3.401428   4.135961
    16  C    3.475036   2.356210   1.528106   2.374188   3.488304
    17  C    1.531261   2.377335   3.493327   3.926611   3.481488
    18  C    2.414049   3.405068   4.143804   4.114741   3.341992
    19  C    3.404028   4.136643   4.111220   3.333772   2.364055
    20  C    2.376970   3.489915   3.926925   3.476970   2.358705
    21  C    3.501561   3.935476   3.488391   2.363208   1.535399
    22  C    4.146546   4.119819   3.347086   2.369404   2.415173
    23  C    4.116718   3.342150   2.370556   2.413503   3.406602
    24  C    3.926677   3.479757   2.362000   1.529771   2.377369
                    6          7          8          9         10
     6  C    0.000000
     7  C    3.340471   0.000000
     8  C    3.817998   1.422251   0.000000
     9  C    4.264592   2.464316   1.423498   0.000000
    10  C    4.282824   2.846212   2.466475   1.424927   0.000000
    11  C    3.864237   2.466727   2.847586   2.465088   1.420785
    12  C    3.368328   1.423727   2.465062   2.846205   2.464053
    13  C    3.488920   3.409552   2.415022   2.373379   3.349674
    14  C    3.346580   2.384341   1.534284   2.365697   3.488338
    15  C    4.107787   3.483778   2.370811   1.526776   2.357789
    16  C    3.922726   4.136217   3.402292   2.413198   2.365413
    17  C    2.361813   2.412785   2.365210   3.340580   4.115527
    18  C    2.368980   1.531043   2.359250   3.482059   3.930425
    19  C    2.413065   2.356221   3.474827   3.922020   3.485132
    20  C    1.529348   2.365033   3.336908   4.113398   4.139759
    21  C    2.386209   3.345275   4.120593   4.147947   3.407968
    22  C    3.409356   3.485603   3.934434   3.500461   2.382954
    23  C    4.143389   3.930500   3.496920   2.383628   1.532664
    24  C    3.491713   4.113769   4.141391   3.407669   2.413465
                   11         12         13         14         15
    11  C    0.000000
    12  C    1.424821   0.000000
    13  C    4.124523   4.150401   0.000000
    14  C    3.937150   3.501882   1.460703   0.000000
    15  C    3.474540   3.920808   1.365265   2.294633   0.000000
    16  C    3.335513   4.110681   2.306328   3.382006   1.463370
    17  C    4.143656   3.407942   2.299820   1.366126   3.289388
    18  C    3.497803   2.382750   3.384704   2.303802   3.974140
    19  C    2.373658   1.526792   4.525293   3.986278   4.583893
    20  C    3.406823   2.414686   3.986674   3.302123   4.479804
    21  C    2.415643   2.371443   4.616760   4.506990   4.521170
    22  C    1.534464   2.364719   4.508498   4.613285   3.983718
    23  C    2.359901   3.482765   3.311604   3.992471   2.302147
    24  C    2.366421   3.340476   3.993704   4.528681   3.378261
                   16         17         18         19         20
    16  C    0.000000
    17  C    3.977669   0.000000
    18  C    4.517828   1.461725   0.000000
    19  C    4.478675   3.379909   2.301759   0.000000
    20  C    4.590493   2.298240   1.365083   1.464841   0.000000
    21  C    3.982053   3.991755   3.308165   1.365013   2.306008
    22  C    3.298981   4.528159   3.990360   2.295371   3.383623
    23  C    1.365051   4.494279   4.603450   3.976441   4.521759
    24  C    2.296207   4.598224   4.492673   3.290819   3.979947
                   21         22         23         24
    21  C    0.000000
    22  C    1.460504   0.000000
    23  C    3.383650   2.303009   0.000000
    24  C    2.298955   1.366116   1.461571   0.000000
 Stoichiometry    C24
 Framework group  C1[X(C24)]
 Deg. of freedom    66
 Full point group                 C1      NOp   1
 Largest Abelian subgroup         C1      NOp   1
 Largest concise Abelian subgroup C1      NOp   1
                         Standard orientation:                         
 ---------------------------------------------------------------------
 Center     Atomic      Atomic             Coordinates (Angstroms)
 Number     Number       Type             X           Y           Z
 ---------------------------------------------------------------------
      1          6           0        1.251649    0.678534    1.634616
      2          6           0        1.215432   -0.742855    1.633135
      3          6           0       -0.033707   -1.423311    1.637650
      4          6           0       -1.247594   -0.678302    1.636327
      5          6           0       -1.212587    0.743509    1.636554
      6          6           0        0.037582    1.422448    1.636156
      7          6           0        0.690170    1.243060   -1.635036
      8          6           0        1.421330    0.023140   -1.635585
      9          6           0        0.729516   -1.220940   -1.638058
     10          6           0       -0.695233   -1.243218   -1.634897
     11          6           0       -1.425855   -0.024685   -1.634392
     12          6           0       -0.733378    1.220540   -1.636532
     13          6           0        1.981737   -1.187033    0.377809
     14          6           0        2.306756    0.017051   -0.382584
     15          6           0        1.164384   -1.973006   -0.382538
     16          6           0       -0.041924   -2.293347    0.381434
     17          6           0        2.012707    1.112579    0.378768
     18          6           0        1.135718    2.001031   -0.381616
     19          6           0       -1.165886    1.974388   -0.381245
     20          6           0        0.042795    2.296365    0.381107
     21          6           0       -1.978369    1.186154    0.381526
     22          6           0       -2.306396   -0.017584   -0.377740
     23          6           0       -1.137578   -2.001952   -0.378826
     24          6           0       -2.011268   -1.112565    0.383963
 ---------------------------------------------------------------------
 Rotational constants (GHZ):      0.5425622      0.5407345      0.4796065
 Standard basis: 6-31G(d,p) (6D, 7F)
 There are   360 symmetry adapted cartesian basis functions of A   symmetry.
 There are   360 symmetry adapted basis functions of A   symmetry.
   360 basis functions,   672 primitive gaussians,   360 cartesian basis functions
    72 alpha electrons       72 beta electrons
       nuclear repulsion energy      1906.2698596145 Hartrees.
 NAtoms=   24 NActive=   24 NUniq=   24 SFac= 1.00D+00 NAtFMM=   60 NAOKFM=F Big=F
 Integral buffers will be    131072 words long.
 Raffenetti 2 integral format.
 Two-electron integral symmetry is turned on.
 One-electron integrals computed using PRISM.
 NBasis=   360 RedAO= T EigKep=  5.41D-04  NBF=   360
 NBsUse=   360 1.00D-06 EigRej= -1.00D+00 NBFU=   360
 Initial guess from the checkpoint file:  "/scratch/tmp/3419169/Gau-146785.chk"
 B after Tr=     0.000000   -0.000000   -0.000000
         Rot=    0.999992   -0.000729    0.000330   -0.003794 Ang=  -0.44 deg.
 Requested convergence on RMS density matrix=1.00D-08 within  64 cycles.
 Requested convergence on MAX density matrix=1.00D-06.
 Requested convergence on             energy=1.00D-06.
 No special actions if energy rises.
 SCF Done:  E(RB3LYP) =  -913.839716607     A.U. after   13 cycles
            NFock= 13  Conv=0.91D-08     -V/T= 2.0090
 QCSCF skips out because SCF is already converged.
 Calling FoFJK, ICntrl=      2127 FMM=F ISym2X=0 I1Cent= 0 IOpClX= 0 NMat=1 NMatS=1 NMatT=0.
 ***** Axes restored to original set *****
 -------------------------------------------------------------------
 Center     Atomic                   Forces (Hartrees/Bohr)
 Number     Number              X              Y              Z
 -------------------------------------------------------------------
      1        6           0.000371873    0.000078261    0.000145532
      2        6           0.000525478   -0.000573336    0.000394174
      3        6          -0.000083137    0.000519814   -0.000097802
      4        6          -0.000218330   -0.000083895    0.000276595
      5        6           0.000027972    0.000155186   -0.000342337
      6        6          -0.000015098    0.000132675    0.000053842
      7        6           0.000444125    0.000017410   -0.000395715
      8        6           0.000433341   -0.000254780   -0.000429377
      9        6          -0.000347846    0.000944173    0.000248380
     10        6           0.000101077   -0.000762739    0.000132439
     11        6           0.000335924    0.000908311    0.000156081
     12        6          -0.000308155   -0.000946554    0.000182754
     13        6          -0.000805229    0.000735955   -0.000421551
     14        6          -0.000050075    0.000476249    0.000123700
     15        6          -0.000204505   -0.000821001    0.000068679
     16        6           0.000189641   -0.000596232   -0.000509629
     17        6          -0.000276533   -0.000226091   -0.000163026
     18        6          -0.000495096    0.000007866   -0.000029332
     19        6          -0.000204744    0.000624276    0.000796171
     20        6           0.000185124    0.000096047   -0.000605534
     21        6           0.000219891   -0.000368505    0.000378137
     22        6          -0.000282759   -0.000383874   -0.000038141
     23        6           0.000215172    0.000166256    0.000459686
     24        6           0.000241888    0.000154530   -0.000383725
 -------------------------------------------------------------------
 Cartesian Forces:  Max     0.000946554 RMS     0.000406522

 GradGradGradGradGradGradGradGradGradGradGradGradGradGradGradGradGradGrad
 Berny optimization.
 Using GEDIIS/GDIIS optimizer.
 FormGI is forming the generalized inverse of G from B-inverse, IUseBI=4.
 Internal  Forces:  Max     0.000599800 RMS     0.000117985
 Search for a local minimum.
 Step number   6 out of a maximum of  144
 All quantities printed in internal units (Hartrees-Bohrs-Radians)
 Mixed Optimization -- En-DIIS/RFO-DIIS
 Swapping is turned off.
 Update second derivatives using D2CorX and points    3    4    5    6
 DE= -4.90D-05 DEPred=-3.39D-05 R= 1.45D+00
 TightC=F SS=  1.41D+00  RLast= 2.93D-02 DXNew= 1.4270D+00 8.7929D-02
 Trust test= 1.45D+00 RLast= 2.93D-02 DXMaxT set to 8.49D-01
 ITU=  1  1  1  1  1  0
     Eigenvalues ---    0.02339   0.03686   0.03796   0.04034   0.04312
     Eigenvalues ---    0.04468   0.04629   0.05101   0.05115   0.05726
     Eigenvalues ---    0.05917   0.06177   0.06306   0.06900   0.07074
     Eigenvalues ---    0.07329   0.07418   0.08199   0.08267   0.08411
     Eigenvalues ---    0.08445   0.08505   0.08613   0.09213   0.09508
     Eigenvalues ---    0.09637   0.09794   0.09908   0.11133   0.12098
     Eigenvalues ---    0.16160   0.16321   0.17377   0.17706   0.17944
     Eigenvalues ---    0.18016   0.18678   0.21636   0.22056   0.22620
     Eigenvalues ---    0.23034   0.26405   0.26572   0.27970   0.29148
     Eigenvalues ---    0.30159   0.31395   0.32112   0.32816   0.34086
     Eigenvalues ---    0.34726   0.35359   0.35655   0.36612   0.36842
     Eigenvalues ---    0.37651   0.38393   0.38924   0.39358   0.40053
     Eigenvalues ---    0.41052   0.41787   0.42212   0.42389   0.43650
     Eigenvalues ---    0.46933
 En-DIIS/RFO-DIIS IScMMF=        0 using points:     6    5    4
 RFO step:  Lambda=-1.11634340D-05.
 DidBck=F Rises=F RFO-DIIS coefs:    1.79142   -0.77941   -0.01201
 Iteration  1 RMS(Cart)=  0.00125338 RMS(Int)=  0.00000901
 Iteration  2 RMS(Cart)=  0.00000378 RMS(Int)=  0.00000795
 Iteration  3 RMS(Cart)=  0.00000000 RMS(Int)=  0.00000795
 Variable       Old X    -DE/DX   Delta X   Delta X   Delta X     New X
                                 (Linear)    (Quad)   (Total)
    R1        2.68691   0.00011   0.00016   0.00053   0.00069   2.68760
    R2        2.69070   0.00007   0.00024   0.00031   0.00055   2.69125
    R3        2.89366  -0.00032  -0.00212  -0.00069  -0.00282   2.89085
    R4        2.68806   0.00022   0.00098   0.00029   0.00125   2.68931
    R5        2.90327  -0.00048  -0.00346  -0.00177  -0.00523   2.89805
    R6        2.69149  -0.00013  -0.00064  -0.00030  -0.00094   2.69055
    R7        2.88770   0.00032   0.00151   0.00234   0.00385   2.89155
    R8        2.68765   0.00002   0.00006   0.00030   0.00035   2.68800
    R9        2.89085   0.00019   0.00027   0.00096   0.00123   2.89207
   R10        2.68839   0.00004  -0.00015   0.00017   0.00001   2.68840
   R11        2.90148  -0.00031  -0.00176  -0.00093  -0.00269   2.89879
   R12        2.89005   0.00001   0.00001   0.00094   0.00095   2.89100
   R13        2.68767  -0.00013   0.00212  -0.00191   0.00022   2.68788
   R14        2.69045  -0.00033   0.00070  -0.00078  -0.00007   2.69038
   R15        2.89325   0.00012  -0.00124   0.00114  -0.00010   2.89315
   R16        2.69002  -0.00025   0.00123  -0.00081   0.00042   2.69044
   R17        2.89938   0.00004  -0.00130   0.00044  -0.00085   2.89852
   R18        2.69272  -0.00040  -0.00215  -0.00111  -0.00327   2.68945
   R19        2.88519   0.00026   0.00261   0.00180   0.00442   2.88961
   R20        2.68489   0.00039   0.00119   0.00153   0.00272   2.68761
   R21        2.89632  -0.00010  -0.00194  -0.00054  -0.00248   2.89383
   R22        2.69252  -0.00042  -0.00168  -0.00104  -0.00273   2.68979
   R23        2.89972  -0.00004  -0.00232   0.00025  -0.00208   2.89764
   R24        2.88522   0.00036   0.00169   0.00213   0.00383   2.88905
   R25        2.76033   0.00027  -0.00021   0.00076   0.00057   2.76090
   R26        2.57998  -0.00005  -0.00039  -0.00007  -0.00045   2.57953
   R27        2.58160  -0.00018   0.00030  -0.00119  -0.00089   2.58072
   R28        2.76537  -0.00026  -0.00217  -0.00004  -0.00219   2.76317
   R29        2.57957  -0.00015   0.00103  -0.00045   0.00059   2.58016
   R30        2.76226  -0.00000   0.00028   0.00006   0.00033   2.76259
   R31        2.57963  -0.00011   0.00027  -0.00040  -0.00013   2.57951
   R32        2.76815  -0.00060  -0.00154  -0.00118  -0.00271   2.76544
   R33        2.57950  -0.00002  -0.00053   0.00044  -0.00008   2.57942
   R34        2.75995   0.00018  -0.00042   0.00095   0.00054   2.76049
   R35        2.58159  -0.00019   0.00078  -0.00124  -0.00046   2.58113
   R36        2.76197   0.00008  -0.00225   0.00061  -0.00164   2.76033
    A1        2.09506   0.00001   0.00031  -0.00006   0.00025   2.09531
    A2        1.87043  -0.00001  -0.00059   0.00026  -0.00033   1.87010
    A3        1.85103  -0.00002  -0.00011  -0.00016  -0.00027   1.85076
    A4        2.09506  -0.00006   0.00010  -0.00040  -0.00031   2.09475
    A5        1.85164   0.00006   0.00028  -0.00065  -0.00036   1.85127
    A6        1.87790  -0.00010  -0.00123  -0.00138  -0.00262   1.87528
    A7        2.09233   0.00001  -0.00056   0.00072   0.00016   2.09249
    A8        1.84884  -0.00006   0.00008   0.00039   0.00046   1.84930
    A9        1.86761   0.00009   0.00086   0.00106   0.00191   1.86952
   A10        2.09664   0.00005   0.00030  -0.00054  -0.00024   2.09640
   A11        1.85224  -0.00006  -0.00032  -0.00055  -0.00087   1.85136
   A12        1.87151  -0.00003  -0.00032   0.00002  -0.00030   1.87121
   A13        2.09293   0.00002   0.00059   0.00033   0.00092   2.09384
   A14        1.85022   0.00007   0.00075  -0.00025   0.00051   1.85073
   A15        1.87599  -0.00011  -0.00028  -0.00082  -0.00110   1.87488
   A16        2.09434  -0.00003  -0.00073  -0.00004  -0.00078   2.09356
   A17        1.87000   0.00001  -0.00060   0.00017  -0.00043   1.86957
   A18        1.85036  -0.00003  -0.00071   0.00016  -0.00056   1.84980
   A19        2.09492  -0.00000  -0.00104   0.00033  -0.00071   2.09421
   A20        1.84975   0.00005   0.00040   0.00024   0.00064   1.85039
   A21        1.87514  -0.00018  -0.00009  -0.00180  -0.00190   1.87324
   A22        2.09415   0.00003  -0.00154   0.00022  -0.00132   2.09283
   A23        1.87524  -0.00010  -0.00039  -0.00054  -0.00094   1.87431
   A24        1.85294  -0.00006  -0.00110  -0.00056  -0.00168   1.85126
   A25        2.09393   0.00004   0.00173   0.00013   0.00186   2.09579
   A26        1.86570   0.00020   0.00170   0.00156   0.00324   1.86894
   A27        1.84966  -0.00007  -0.00032   0.00077   0.00045   1.85011
   A28        2.09528  -0.00009  -0.00017  -0.00032  -0.00050   2.09478
   A29        1.87353   0.00007   0.00033  -0.00094  -0.00061   1.87292
   A30        1.85029  -0.00001   0.00030  -0.00031  -0.00001   1.85028
   A31        2.09395  -0.00004  -0.00076  -0.00048  -0.00125   2.09271
   A32        1.87481  -0.00010  -0.00095  -0.00057  -0.00152   1.87328
   A33        1.85051   0.00014  -0.00013   0.00022   0.00009   1.85060
   A34        2.09413   0.00006   0.00180   0.00013   0.00192   2.09605
   A35        1.84894   0.00006   0.00007   0.00127   0.00134   1.85027
   A36        1.86774   0.00005   0.00087   0.00089   0.00176   1.86950
   A37        1.87340  -0.00004   0.00129   0.00090   0.00216   1.87557
   A38        1.89957   0.00026   0.00236   0.00302   0.00537   1.90494
   A39        1.89426   0.00001   0.00231   0.00125   0.00353   1.89779
   A40        1.87548   0.00001   0.00015  -0.00042  -0.00027   1.87522
   A41        1.90470   0.00013  -0.00019   0.00126   0.00106   1.90577
   A42        1.89973  -0.00004  -0.00153  -0.00063  -0.00216   1.89757
   A43        1.92295  -0.00017  -0.00352  -0.00229  -0.00582   1.91713
   A44        1.87795  -0.00001  -0.00004  -0.00076  -0.00082   1.87713
   A45        1.90581  -0.00002  -0.00048  -0.00145  -0.00194   1.90387
   A46        1.87560  -0.00006  -0.00030  -0.00012  -0.00042   1.87518
   A47        1.91838  -0.00011  -0.00234  -0.00175  -0.00410   1.91428
   A48        1.90092  -0.00001  -0.00065  -0.00054  -0.00118   1.89974
   A49        1.91425   0.00005   0.00113   0.00033   0.00146   1.91571
   A50        1.87625   0.00006   0.00175   0.00011   0.00186   1.87811
   A51        1.90355  -0.00004   0.00063  -0.00090  -0.00028   1.90327
   A52        1.87503  -0.00004  -0.00073   0.00011  -0.00062   1.87441
   A53        1.90873   0.00011  -0.00033   0.00135   0.00102   1.90975
   A54        1.89779   0.00003  -0.00178   0.00044  -0.00133   1.89646
   A55        1.87829  -0.00002  -0.00128  -0.00086  -0.00216   1.87613
   A56        1.92083  -0.00016  -0.00201  -0.00181  -0.00383   1.91700
   A57        1.90418   0.00005  -0.00112  -0.00068  -0.00182   1.90236
   A58        1.91519  -0.00007   0.00122  -0.00073   0.00048   1.91567
   A59        1.87410   0.00003   0.00122   0.00033   0.00155   1.87565
   A60        1.89893   0.00003   0.00116   0.00001   0.00117   1.90010
   A61        1.90326   0.00007   0.00145   0.00141   0.00287   1.90613
   A62        1.87480  -0.00001  -0.00014   0.00044   0.00029   1.87509
   A63        1.89560   0.00004   0.00058   0.00098   0.00156   1.89715
   A64        1.87620  -0.00008   0.00048  -0.00054  -0.00006   1.87614
   A65        1.90598   0.00007   0.00076   0.00088   0.00163   1.90761
   A66        1.89888   0.00005   0.00037  -0.00009   0.00029   1.89917
   A67        1.90759   0.00004   0.00088   0.00160   0.00247   1.91005
   A68        1.87444  -0.00003   0.00054   0.00061   0.00114   1.87557
   A69        1.89550   0.00009   0.00151   0.00120   0.00271   1.89822
   A70        1.91428  -0.00007  -0.00071   0.00002  -0.00069   1.91359
   A71        1.87715  -0.00002  -0.00008  -0.00029  -0.00038   1.87677
   A72        1.90275   0.00008  -0.00037  -0.00034  -0.00071   1.90204
    D1       -0.00362   0.00004   0.00014   0.00134   0.00148  -0.00215
    D2        2.12606  -0.00008  -0.00122  -0.00138  -0.00259   2.12347
    D3       -2.11312   0.00007   0.00057   0.00138   0.00194  -2.11118
    D4        0.01656  -0.00005  -0.00078  -0.00134  -0.00212   0.01444
    D5        0.00028  -0.00004  -0.00116  -0.00019  -0.00135  -0.00107
    D6       -2.10744   0.00000   0.00083  -0.00052   0.00032  -2.10713
    D7        2.11935  -0.00007  -0.00183  -0.00002  -0.00185   2.11751
    D8        0.01163  -0.00002   0.00017  -0.00035  -0.00018   0.01145
    D9        0.08812   0.00001  -0.00113   0.00059  -0.00055   0.08757
   D10        2.15560   0.00002   0.00125  -0.00024   0.00101   2.15661
   D11       -2.16952   0.00002  -0.00108   0.00060  -0.00048  -2.17000
   D12       -0.10204   0.00003   0.00130  -0.00023   0.00108  -0.10096
   D13        0.00593  -0.00002   0.00034  -0.00188  -0.00154   0.00439
   D14        2.11750   0.00005   0.00117   0.00035   0.00152   2.11903
   D15       -2.11085   0.00003   0.00095   0.00050   0.00144  -2.10941
   D16        0.00072   0.00010   0.00179   0.00273   0.00451   0.00523
   D17       -0.10848   0.00009   0.00231   0.00170   0.00402  -0.10446
   D18       -2.15539  -0.00004  -0.00235  -0.00185  -0.00421  -2.15961
   D19        2.15427  -0.00001   0.00182  -0.00010   0.00175   2.15601
   D20        0.10736  -0.00014  -0.00283  -0.00365  -0.00649   0.10087
   D21       -0.00492  -0.00001   0.00021   0.00129   0.00149  -0.00342
   D22        2.11775  -0.00007  -0.00030   0.00046   0.00017   2.11792
   D23       -2.10715   0.00000  -0.00024  -0.00063  -0.00087  -2.10802
   D24        0.01552  -0.00007  -0.00074  -0.00145  -0.00220   0.01333
   D25       -0.10052  -0.00003  -0.00027  -0.00099  -0.00126  -0.10178
   D26       -2.16676   0.00009   0.00197   0.00069   0.00265  -2.16411
   D27        2.15067  -0.00001  -0.00038   0.00078   0.00041   2.15108
   D28        0.08443   0.00011   0.00187   0.00246   0.00432   0.08875
   D29        0.00158   0.00000  -0.00122  -0.00015  -0.00137   0.00021
   D30        2.12597  -0.00007  -0.00055  -0.00123  -0.00179   2.12418
   D31       -2.11161   0.00009  -0.00072   0.00097   0.00025  -2.11136
   D32        0.01278   0.00001  -0.00005  -0.00012  -0.00017   0.01261
   D33       -2.17030  -0.00003   0.00021   0.00068   0.00090  -2.16940
   D34       -0.10324   0.00002  -0.00068   0.00012  -0.00056  -0.10380
   D35        0.09072  -0.00004   0.00017  -0.00031  -0.00015   0.09058
   D36        2.15778   0.00001  -0.00073  -0.00088  -0.00160   2.15618
   D37        0.00074   0.00002   0.00170  -0.00040   0.00130   0.00204
   D38        2.11818  -0.00001  -0.00022  -0.00007  -0.00029   2.11789
   D39       -2.11092   0.00001   0.00050   0.00040   0.00090  -2.11002
   D40        0.00652  -0.00002  -0.00142   0.00073  -0.00068   0.00584
   D41       -2.15594  -0.00006  -0.00150  -0.00161  -0.00312  -2.15906
   D42       -0.10472   0.00003  -0.00013   0.00055   0.00042  -0.10430
   D43        0.10206  -0.00006  -0.00048  -0.00189  -0.00237   0.09969
   D44        2.15328   0.00003   0.00090   0.00027   0.00118   2.15445
   D45        0.09001   0.00001  -0.00174   0.00086  -0.00088   0.08913
   D46        2.15124   0.00002   0.00100   0.00066   0.00167   2.15291
   D47       -2.16606   0.00005  -0.00002   0.00071   0.00069  -2.16538
   D48       -0.10483   0.00007   0.00272   0.00051   0.00324  -0.10159
   D49        0.00035   0.00004  -0.00117   0.00049  -0.00068  -0.00033
   D50       -2.11525   0.00018   0.00178   0.00157   0.00334  -2.11190
   D51        2.12458  -0.00016  -0.00167  -0.00151  -0.00318   2.12140
   D52        0.00898  -0.00002   0.00127  -0.00043   0.00084   0.00983
   D53        0.00339  -0.00015  -0.00062  -0.00200  -0.00262   0.00078
   D54        2.11645   0.00001   0.00182   0.00037   0.00219   2.11864
   D55       -2.10833  -0.00006  -0.00034  -0.00100  -0.00135  -2.10967
   D56        0.00473   0.00010   0.00210   0.00137   0.00346   0.00819
   D57       -0.10588   0.00005  -0.00186   0.00084  -0.00101  -0.10689
   D58       -2.16277  -0.00002   0.00085  -0.00048   0.00037  -2.16240
   D59        2.15373  -0.00003  -0.00293   0.00026  -0.00267   2.15106
   D60        0.09684  -0.00010  -0.00023  -0.00106  -0.00128   0.09555
   D61       -0.00412   0.00011   0.00177   0.00148   0.00326  -0.00086
   D62       -2.10695   0.00001  -0.00042  -0.00097  -0.00141  -2.10836
   D63        2.12245  -0.00005  -0.00079   0.00042  -0.00035   2.12210
   D64        0.01962  -0.00015  -0.00298  -0.00203  -0.00502   0.01460
   D65        2.15579   0.00002  -0.00207  -0.00037  -0.00243   2.15335
   D66        0.09851  -0.00001  -0.00022  -0.00007  -0.00029   0.09822
   D67       -0.10500   0.00008   0.00079   0.00006   0.00085  -0.10415
   D68       -2.16227   0.00005   0.00263   0.00037   0.00299  -2.15928
   D69        0.00416  -0.00014  -0.00059  -0.00195  -0.00255   0.00161
   D70       -2.10716  -0.00013  -0.00116  -0.00049  -0.00166  -2.10882
   D71        2.11495   0.00009   0.00258   0.00088   0.00346   2.11841
   D72        0.00363   0.00011   0.00201   0.00234   0.00434   0.00798
   D73        0.07911   0.00020   0.00439   0.00355   0.00793   0.08704
   D74        2.15517   0.00007   0.00179   0.00005   0.00185   2.15702
   D75       -2.17336   0.00007   0.00146   0.00195   0.00338  -2.16998
   D76       -0.09730  -0.00006  -0.00115  -0.00156  -0.00270  -0.10000
   D77       -0.00042   0.00003  -0.00119   0.00045  -0.00075  -0.00117
   D78       -2.11220  -0.00004   0.00035   0.00098   0.00132  -2.11087
   D79        2.12236   0.00005  -0.00061  -0.00131  -0.00192   2.12044
   D80        0.01058  -0.00002   0.00093  -0.00078   0.00015   0.01073
   D81        0.09892  -0.00013  -0.00241  -0.00238  -0.00479   0.09413
   D82        2.15215  -0.00002   0.00015   0.00025   0.00041   2.15255
   D83       -2.16046  -0.00005  -0.00260  -0.00119  -0.00380  -2.16426
   D84       -0.10723   0.00006  -0.00004   0.00144   0.00140  -0.10583
   D85       -0.00336   0.00012   0.00180   0.00153   0.00333  -0.00003
   D86       -2.10709  -0.00005  -0.00027  -0.00104  -0.00132  -2.10840
   D87        2.12041   0.00007  -0.00012   0.00061   0.00050   2.12091
   D88        0.01668  -0.00010  -0.00219  -0.00195  -0.00415   0.01253
   D89        2.15455   0.00004  -0.00060  -0.00002  -0.00062   2.15393
   D90        0.09719  -0.00002  -0.00172  -0.00009  -0.00181   0.09537
   D91       -0.10416   0.00007   0.00102   0.00078   0.00180  -0.10236
   D92       -2.16152   0.00001  -0.00010   0.00071   0.00061  -2.16091
   D93       -0.09705  -0.00008  -0.00326  -0.00122  -0.00448  -0.10153
   D94       -2.17015  -0.00004  -0.00001   0.00112   0.00111  -2.16904
   D95        2.15647   0.00007  -0.00051   0.00028  -0.00022   2.15625
   D96        0.08337   0.00011   0.00275   0.00263   0.00537   0.08875
   D97       -1.89363  -0.00023  -0.00230  -0.00230  -0.00460  -1.89824
   D98        0.16687  -0.00009  -0.00327  -0.00138  -0.00465   0.16222
   D99        0.15675   0.00006   0.00238   0.00240   0.00480   0.16155
   D100       2.21725   0.00020   0.00141   0.00332   0.00476   2.22201
   D101       1.88679  -0.00004   0.00010  -0.00015  -0.00000   1.88679
   D102      -0.17217   0.00010   0.00253   0.00300   0.00555  -0.16663
   D103      -0.14681  -0.00014  -0.00396  -0.00355  -0.00750  -0.15431
   D104      -2.20578  -0.00000  -0.00154  -0.00040  -0.00195  -2.20773
   D105       1.88356   0.00012   0.00204   0.00048   0.00252   1.88609
   D106      -0.16693   0.00005  -0.00109   0.00068  -0.00041  -0.16734
   D107      -0.15840   0.00006   0.00283   0.00064   0.00346  -0.15493
   D108      -2.20889  -0.00002  -0.00030   0.00084   0.00053  -2.20836
   D109      -1.91445   0.00015   0.00279   0.00237   0.00515  -1.90931
   D110       0.16302  -0.00003  -0.00053  -0.00008  -0.00061   0.16241
   D111       0.17255  -0.00007  -0.00174  -0.00164  -0.00337   0.16918
   D112       2.25002  -0.00025  -0.00505  -0.00409  -0.00913   2.24089
   D113       1.88914  -0.00006  -0.00043  -0.00015  -0.00056   1.88858
   D114      -0.15080  -0.00010  -0.00241  -0.00244  -0.00484  -0.15563
   D115      -0.16140   0.00009   0.00166   0.00132   0.00298  -0.15843
   D116      -2.20134   0.00005  -0.00032  -0.00098  -0.00130  -2.20265
   D117      -1.90256  -0.00014  -0.00086  -0.00102  -0.00188  -1.90445
   D118       0.16141  -0.00001  -0.00261   0.00088  -0.00173   0.15968
   D119       0.17180  -0.00007   0.00182  -0.00106   0.00077   0.17257
   D120       2.23578   0.00005   0.00007   0.00084   0.00092   2.23669
   D121       1.88684   0.00005   0.00073   0.00013   0.00086   1.88770
   D122      -0.15892   0.00003  -0.00209   0.00014  -0.00196  -0.16088
   D123      -0.15574   0.00002   0.00280  -0.00102   0.00179  -0.15395
   D124      -2.20149  -0.00000  -0.00002  -0.00100  -0.00103  -2.20253
   D125      -1.91056   0.00006   0.00053   0.00116   0.00168  -1.90888
   D126       0.16119   0.00001   0.00328   0.00048   0.00375   0.16494
   D127       0.17318  -0.00011  -0.00326  -0.00189  -0.00515   0.16804
   D128       2.24493  -0.00016  -0.00051  -0.00256  -0.00307   2.24186
   D129       1.88745   0.00000  -0.00107  -0.00030  -0.00136   1.88609
   D130      -0.15058  -0.00006  -0.00202  -0.00215  -0.00416  -0.15474
   D131      -0.16971   0.00009   0.00235   0.00221   0.00456  -0.16514
   D132      -2.20774   0.00003   0.00140   0.00037   0.00176  -2.20598
   D133      -1.89730  -0.00010  -0.00109  -0.00142  -0.00251  -1.89980
   D134       0.16466  -0.00004   0.00027  -0.00072  -0.00045   0.16421
   D135       0.15891   0.00000   0.00086   0.00101   0.00187   0.16078
   D136       2.22086   0.00007   0.00222   0.00171   0.00393   2.22479
   D137       1.88465   0.00003   0.00095   0.00052   0.00147   1.88612
   D138      -0.16649   0.00004   0.00168   0.00106   0.00274  -0.16374
   D139      -0.15841   0.00006  -0.00026   0.00072   0.00046  -0.15795
   D140      -2.20954   0.00007   0.00047   0.00126   0.00173  -2.20781
   D141      -1.90233  -0.00001  -0.00004  -0.00122  -0.00126  -1.90359
   D142       0.17214  -0.00006  -0.00115  -0.00154  -0.00270   0.16945
   D143       0.15874   0.00007   0.00209   0.00165   0.00375   0.16249
   D144       2.23322   0.00002   0.00098   0.00132   0.00231   2.23553
         Item               Value     Threshold  Converged?
 Maximum Force            0.000600     0.000450     NO 
 RMS     Force            0.000118     0.000300     YES
 Maximum Displacement     0.006876     0.001800     NO 
 RMS     Displacement     0.001254     0.001200     NO 
 Predicted change in Energy=-2.424979D-05
 GradGradGradGradGradGradGradGradGradGradGradGradGradGradGradGradGradGrad

                          Input orientation:                          
 ---------------------------------------------------------------------
 Center     Atomic      Atomic             Coordinates (Angstroms)
 Number     Number       Type             X           Y           Z
 ---------------------------------------------------------------------
      1          6           0       -1.045535   -0.027044    2.196237
      2          6           0       -1.513034   -1.244682    1.629229
      3          6           0       -2.419941   -1.217566    0.532845
      4          6           0       -2.853846    0.030101    0.001624
      5          6           0       -2.385716    1.248264    0.567520
      6          6           0       -1.482185    1.220527    1.666046
      7          6           0        1.348984    0.736260   -0.043210
      8          6           0        1.368191   -0.685754   -0.017999
      9          6           0        0.593327   -1.422986   -0.957705
     10          6           0       -0.200485   -0.738797   -1.920637
     11          6           0       -0.219179    0.683064   -1.946675
     12          6           0        0.555877    1.420238   -1.007597
     13          6           0       -0.263464   -2.008078    1.173522
     14          6           0        0.884787   -1.126220    1.369426
     15          6           0       -0.374221   -2.294787   -0.156452
     16          6           0       -1.729271   -1.974963   -0.603227
     17          6           0        0.479265   -0.028260    2.073028
     18          6           0        0.864723    1.176861    1.340730
     19          6           0       -0.413438    2.295173   -0.212486
     20          6           0       -0.234098    1.975120    1.204187
     21          6           0       -1.698340    2.009035   -0.573456
     22          6           0       -1.672350    1.124718   -1.735874
     23          6           0       -1.652470   -1.176542   -1.708142
     24          6           0       -2.443637    0.028582   -1.472794
 ---------------------------------------------------------------------
                    Distance matrix (angstroms):
                    1          2          3          4          5
     1  C    0.000000
     2  C    1.422215   0.000000
     3  C    2.464388   1.423121   0.000000
     4  C    2.844218   2.464132   1.423777   0.000000
     5  C    2.464796   2.846679   2.466311   1.422429   0.000000
     6  C    1.424148   2.465677   2.847425   2.463507   1.422638
     7  C    3.366226   3.861649   4.284165   4.261977   3.818786
     8  C    3.341080   3.365594   3.864738   4.282339   4.263224
     9  C    3.818622   3.340775   3.368044   3.861965   4.282124
    10  C    4.262553   3.818410   3.342870   3.365504   3.861938
    11  C    4.283788   4.263491   3.821487   3.341212   3.366676
    12  C    3.863120   4.281944   4.264559   3.818012   3.341187
    13  C    2.362642   1.533580   2.384486   3.498228   3.933822
    14  C    2.370220   2.414762   3.410196   4.145519   4.120366
    15  C    3.335936   2.363953   2.412573   3.402739   4.138050
    16  C    3.478345   2.358798   1.530143   2.377141   3.491527
    17  C    1.529770   2.376110   3.491706   3.924761   3.479107
    18  C    2.414615   3.406000   4.144270   4.115339   3.341902
    19  C    3.405023   4.139033   4.113502   3.336462   2.365228
    20  C    2.377237   3.490483   3.927067   3.477404   2.358628
    21  C    3.498996   3.933552   3.486482   2.362645   1.533976
    22  C    4.144991   4.118660   3.345485   2.369181   2.414493
    23  C    4.115081   3.340978   2.369117   2.413005   3.405285
    24  C    3.926776   3.479909   2.361362   1.530419   2.377784
                    6          7          8          9         10
     6  C    0.000000
     7  C    3.342393   0.000000
     8  C    3.820283   1.422367   0.000000
     9  C    4.263799   2.463669   1.423718   0.000000
    10  C    4.283224   2.846293   2.466493   1.423198   0.000000
    11  C    3.864687   2.466809   2.848367   2.464483   1.422222
    12  C    3.367781   1.423688   2.464622   2.843908   2.463161
    13  C    3.485936   3.407612   2.414656   2.370349   3.344976
    14  C    3.346305   2.383244   1.533832   2.364013   3.486033
    15  C    4.111754   3.488483   2.375744   1.529115   2.358737
    16  C    3.927061   4.140049   3.405704   2.413461   2.366614
    17  C    2.360591   2.412336   2.365351   3.338205   4.112941
    18  C    2.369750   1.530989   2.359865   3.480757   3.929496
    19  C    2.413704   2.359024   3.478211   3.923472   3.488281
    20  C    1.529852   2.365782   3.337862   4.111634   4.138962
    21  C    2.384080   3.344742   4.119955   4.144653   3.407205
    22  C    3.408578   3.484892   3.933674   3.497090   2.381851
    23  C    4.142473   3.929318   3.495976   2.380650   1.531351
    24  C    3.492483   4.114425   4.142069   3.405219   2.412709
                   11         12         13         14         15
    11  C    0.000000
    12  C    1.423378   0.000000
    13  C    4.120660   4.145112   0.000000
    14  C    3.935578   3.498981   1.461004   0.000000
    15  C    3.478007   3.923129   1.365028   2.297598   0.000000
    16  C    3.339212   4.112518   2.303590   3.383049   1.462209
    17  C    4.141475   3.405035   2.297920   1.365657   3.291834
    18  C    3.496529   2.381020   3.382988   2.303348   3.978553
    19  C    2.375720   1.528817   4.523437   3.986698   4.590469
    20  C    3.405520   2.413284   3.983425   3.301139   4.483647
    21  C    2.414921   2.369947   4.609555   4.503016   4.522175
    22  C    1.533363   2.362777   4.501551   4.609616   3.984060
    23  C    2.359948   3.480061   3.305266   3.988938   2.300464
    24  C    2.366669   3.339191   3.987998   4.526608   3.378355
                   16         17         18         19         20
    16  C    0.000000
    17  C    3.978646   0.000000
    18  C    4.521258   1.461901   0.000000
    19  C    4.485327   3.379176   2.301477   0.000000
    20  C    4.594067   2.297238   1.365016   1.463406   0.000000
    21  C    3.984229   3.987030   3.305436   1.364971   2.303295
    22  C    3.300630   4.523996   3.988102   2.296853   3.381673
    23  C    1.365361   4.489999   4.601129   3.978064   4.519559
    24  C    2.297969   4.595589   4.492183   3.293557   3.979611
                   21         22         23         24
    21  C    0.000000
    22  C    1.460790   0.000000
    23  C    3.381939   2.301513   0.000000
    24  C    2.299232   1.365873   1.460704   0.000000
 Stoichiometry    C24
 Framework group  C1[X(C24)]
 Deg. of freedom    66
 Full point group                 C1      NOp   1
 Largest Abelian subgroup         C1      NOp   1
 Largest concise Abelian subgroup C1      NOp   1
                         Standard orientation:                         
 ---------------------------------------------------------------------
 Center     Atomic      Atomic             Coordinates (Angstroms)
 Number     Number       Type             X           Y           Z
 ---------------------------------------------------------------------
      1          6           0        1.220131    0.731082    1.636004
      2          6           0        1.245499   -0.690906    1.633982
      3          6           0        0.026195   -1.424776    1.636379
      4          6           0       -1.218272   -0.733081    1.635382
      5          6           0       -1.244307    0.689110    1.636210
      6          6           0       -0.025088    1.422186    1.637781
      7          6           0        0.637760    1.273224   -1.634838
      8          6           0        1.420958    0.085904   -1.636034
      9          6           0        0.781712   -1.186235   -1.637153
     10          6           0       -0.638979   -1.270655   -1.636016
     11          6           0       -1.422360   -0.083630   -1.635743
     12          6           0       -0.783391    1.188268   -1.635170
     13          6           0        2.025758   -1.099787    0.378642
     14          6           0        2.302522    0.116979   -0.381235
     15          6           0        1.248918   -1.924803   -0.382391
     16          6           0        0.057661   -2.296915    0.379510
     17          6           0        1.960487    1.197205    0.381094
     18          6           0        1.047938    2.048670   -0.380101
     19          6           0       -1.250252    1.925724   -0.379988
     20          6           0       -0.057079    2.295717    0.382246
     21          6           0       -2.025344    1.099431    0.381340
     22          6           0       -2.301172   -0.116604   -0.379637
     23          6           0       -1.048287   -2.047209   -0.381239
     24          6           0       -1.961008   -1.198901    0.380975
 ---------------------------------------------------------------------
 Rotational constants (GHZ):      0.5422811      0.5411346      0.4797571
 Standard basis: 6-31G(d,p) (6D, 7F)
 There are   360 symmetry adapted cartesian basis functions of A   symmetry.
 There are   360 symmetry adapted basis functions of A   symmetry.
   360 basis functions,   672 primitive gaussians,   360 cartesian basis functions
    72 alpha electrons       72 beta electrons
       nuclear repulsion energy      1906.4359571222 Hartrees.
 NAtoms=   24 NActive=   24 NUniq=   24 SFac= 1.00D+00 NAtFMM=   60 NAOKFM=F Big=F
 Integral buffers will be    131072 words long.
 Raffenetti 2 integral format.
 Two-electron integral symmetry is turned on.
 One-electron integrals computed using PRISM.
 NBasis=   360 RedAO= T EigKep=  5.41D-04  NBF=   360
 NBsUse=   360 1.00D-06 EigRej= -1.00D+00 NBFU=   360
 Initial guess from the checkpoint file:  "/scratch/tmp/3419169/Gau-146785.chk"
 B after Tr=    -0.000000    0.000000    0.000000
         Rot=    0.999768   -0.000380    0.000375   -0.021535 Ang=  -2.47 deg.
 Requested convergence on RMS density matrix=1.00D-08 within  64 cycles.
 Requested convergence on MAX density matrix=1.00D-06.
 Requested convergence on             energy=1.00D-06.
 No special actions if energy rises.
 SCF Done:  E(RB3LYP) =  -913.839722702     A.U. after   13 cycles
            NFock= 13  Conv=0.58D-08     -V/T= 2.0090
 QCSCF skips out because SCF is already converged.
 Calling FoFJK, ICntrl=      2127 FMM=F ISym2X=0 I1Cent= 0 IOpClX= 0 NMat=1 NMatS=1 NMatT=0.
 ***** Axes restored to original set *****
 -------------------------------------------------------------------
 Center     Atomic                   Forces (Hartrees/Bohr)
 Number     Number              X              Y              Z
 -------------------------------------------------------------------
      1        6           0.000010443    0.000146225   -0.000069001
      2        6          -0.000312793   -0.000317236    0.000070074
      3        6           0.000177640    0.000373741    0.000047495
      4        6          -0.000180744   -0.000117012   -0.000081279
      5        6          -0.000062818    0.000207812    0.000104142
      6        6           0.000134138   -0.000364949    0.000026146
      7        6           0.000240144   -0.000041227   -0.000451139
      8        6          -0.000078043   -0.000193442   -0.000349421
      9        6          -0.000048729   -0.000015308    0.000433993
     10        6           0.000149263   -0.000036390   -0.000302586
     11        6           0.000241743    0.000155164    0.000068397
     12        6          -0.000032676   -0.000071612    0.000184316
     13        6          -0.000422016    0.000123692   -0.000197515
     14        6          -0.000000564    0.000444341    0.000034574
     15        6           0.000273909   -0.000524488   -0.000080841
     16        6          -0.000141282   -0.000035036   -0.000389671
     17        6           0.000595525   -0.000087443    0.000359724
     18        6          -0.000711202   -0.000121084   -0.000010406
     19        6           0.000012755    0.000343243    0.000530624
     20        6           0.000226254    0.000583038   -0.000315701
     21        6           0.000103785   -0.000193324    0.000388663
     22        6          -0.000316953   -0.000347261   -0.000266958
     23        6           0.000344013   -0.000592290    0.000453313
     24        6          -0.000201795    0.000680845   -0.000186946
 -------------------------------------------------------------------
 Cartesian Forces:  Max     0.000711202 RMS     0.000290991

 GradGradGradGradGradGradGradGradGradGradGradGradGradGradGradGradGradGrad
 Berny optimization.
 Using GEDIIS/GDIIS optimizer.
 FormGI is forming the generalized inverse of G from B-inverse, IUseBI=4.
 Internal  Forces:  Max     0.000502336 RMS     0.000090312
 Search for a local minimum.
 Step number   7 out of a maximum of  144
 All quantities printed in internal units (Hartrees-Bohrs-Radians)
 Mixed Optimization -- En-DIIS/RFO-DIIS
 Swapping is turned off.
 Update second derivatives using D2CorX and points    3    4    5    6    7
 DE= -6.09D-06 DEPred=-2.42D-05 R= 2.51D-01
 Trust test= 2.51D-01 RLast= 3.86D-02 DXMaxT set to 8.49D-01
 ITU=  0  1  1  1  1  1  0
     Eigenvalues ---    0.01682   0.03438   0.03692   0.04036   0.04321
     Eigenvalues ---    0.04483   0.04693   0.05098   0.05121   0.05650
     Eigenvalues ---    0.06047   0.06178   0.06467   0.06943   0.07126
     Eigenvalues ---    0.07328   0.07568   0.08201   0.08263   0.08419
     Eigenvalues ---    0.08449   0.08502   0.08626   0.09307   0.09498
     Eigenvalues ---    0.09631   0.09840   0.10215   0.11000   0.12088
     Eigenvalues ---    0.16155   0.16372   0.17381   0.17771   0.17973
     Eigenvalues ---    0.18058   0.18656   0.21658   0.22348   0.22825
     Eigenvalues ---    0.23216   0.26229   0.26548   0.28022   0.29134
     Eigenvalues ---    0.30017   0.31459   0.32117   0.32914   0.34187
     Eigenvalues ---    0.34811   0.35411   0.35717   0.36600   0.36745
     Eigenvalues ---    0.37650   0.38505   0.38950   0.39390   0.40237
     Eigenvalues ---    0.41046   0.41839   0.42273   0.42554   0.44304
     Eigenvalues ---    0.48957
 En-DIIS/RFO-DIIS IScMMF=        0 using points:     7    6    5    4
 RFO step:  Lambda=-4.85316023D-06.
 DidBck=F Rises=F RFO-DIIS coefs:    1.61619   -0.86012    0.20773    0.03620
 Iteration  1 RMS(Cart)=  0.00099445 RMS(Int)=  0.00000456
 Iteration  2 RMS(Cart)=  0.00000213 RMS(Int)=  0.00000387
 Iteration  3 RMS(Cart)=  0.00000000 RMS(Int)=  0.00000387
 Variable       Old X    -DE/DX   Delta X   Delta X   Delta X     New X
                                 (Linear)    (Quad)   (Total)
    R1        2.68760   0.00022   0.00042   0.00052   0.00094   2.68854
    R2        2.69125  -0.00009   0.00031  -0.00049  -0.00019   2.69107
    R3        2.89085   0.00011  -0.00101   0.00037  -0.00064   2.89020
    R4        2.68931  -0.00001   0.00050  -0.00019   0.00030   2.68961
    R5        2.89805  -0.00003  -0.00202  -0.00101  -0.00303   2.89502
    R6        2.69055  -0.00001  -0.00031  -0.00046  -0.00077   2.68978
    R7        2.89155   0.00026   0.00184   0.00064   0.00248   2.89403
    R8        2.68800   0.00012   0.00019   0.00048   0.00066   2.68866
    R9        2.89207   0.00003   0.00069   0.00016   0.00084   2.89292
   R10        2.68840   0.00002   0.00011  -0.00003   0.00008   2.68847
   R11        2.89879  -0.00012  -0.00106  -0.00096  -0.00202   2.89677
   R12        2.89100   0.00018   0.00054   0.00066   0.00120   2.89220
   R13        2.68788   0.00011  -0.00010   0.00082   0.00072   2.68861
   R14        2.69038  -0.00019  -0.00042   0.00003  -0.00039   2.68999
   R15        2.89315   0.00025   0.00048   0.00006   0.00054   2.89369
   R16        2.69044  -0.00020  -0.00029   0.00018  -0.00011   2.69033
   R17        2.89852   0.00007  -0.00002  -0.00069  -0.00070   2.89782
   R18        2.68945   0.00006  -0.00129  -0.00011  -0.00140   2.68805
   R19        2.88961  -0.00000   0.00159   0.00123   0.00282   2.89243
   R20        2.68761   0.00024   0.00129   0.00066   0.00195   2.68956
   R21        2.89383   0.00005  -0.00079  -0.00049  -0.00128   2.89255
   R22        2.68979   0.00001  -0.00112  -0.00029  -0.00141   2.68839
   R23        2.89764   0.00015  -0.00036  -0.00069  -0.00105   2.89659
   R24        2.88905   0.00023   0.00160   0.00128   0.00288   2.89193
   R25        2.76090   0.00035   0.00040   0.00088   0.00129   2.76218
   R26        2.57953  -0.00000  -0.00015   0.00000  -0.00014   2.57939
   R27        2.58072  -0.00010  -0.00066   0.00010  -0.00057   2.58015
   R28        2.76317   0.00012  -0.00047  -0.00042  -0.00088   2.76230
   R29        2.58016  -0.00024  -0.00006  -0.00017  -0.00023   2.57993
   R30        2.76259   0.00000   0.00001   0.00043   0.00043   2.76303
   R31        2.57951  -0.00006  -0.00022   0.00006  -0.00016   2.57935
   R32        2.76544  -0.00034  -0.00123  -0.00095  -0.00218   2.76326
   R33        2.57942   0.00008   0.00014  -0.00036  -0.00021   2.57921
   R34        2.76049   0.00036   0.00041   0.00096   0.00137   2.76186
   R35        2.58113  -0.00021  -0.00059  -0.00006  -0.00065   2.58047
   R36        2.76033   0.00050  -0.00019   0.00086   0.00067   2.76100
    A1        2.09531  -0.00001   0.00008  -0.00046  -0.00038   2.09493
    A2        1.87010   0.00006  -0.00004   0.00120   0.00116   1.87126
    A3        1.85076  -0.00002  -0.00015   0.00005  -0.00010   1.85066
    A4        2.09475  -0.00001  -0.00031   0.00015  -0.00016   2.09459
    A5        1.85127  -0.00004  -0.00025  -0.00086  -0.00110   1.85017
    A6        1.87528  -0.00001  -0.00121  -0.00073  -0.00195   1.87334
    A7        2.09249   0.00002   0.00034   0.00054   0.00088   2.09338
    A8        1.84930  -0.00003   0.00031   0.00020   0.00051   1.84981
    A9        1.86952   0.00008   0.00090   0.00093   0.00183   1.87135
   A10        2.09640  -0.00004  -0.00023  -0.00085  -0.00108   2.09532
   A11        1.85136  -0.00000  -0.00049  -0.00008  -0.00057   1.85080
   A12        1.87121   0.00002  -0.00010   0.00060   0.00050   1.87171
   A13        2.09384   0.00004   0.00031   0.00051   0.00082   2.09467
   A14        1.85073  -0.00002   0.00007  -0.00045  -0.00038   1.85035
   A15        1.87488  -0.00005  -0.00057  -0.00058  -0.00116   1.87373
   A16        2.09356  -0.00000  -0.00020   0.00012  -0.00008   2.09349
   A17        1.86957   0.00010  -0.00003   0.00081   0.00078   1.87035
   A18        1.84980  -0.00004  -0.00007  -0.00010  -0.00018   1.84963
   A19        2.09421   0.00009  -0.00022   0.00013  -0.00009   2.09412
   A20        1.85039  -0.00000   0.00016  -0.00008   0.00007   1.85047
   A21        1.87324  -0.00011  -0.00135  -0.00068  -0.00204   1.87120
   A22        2.09283   0.00009  -0.00035   0.00032  -0.00003   2.09280
   A23        1.87431  -0.00009  -0.00056  -0.00017  -0.00073   1.87358
   A24        1.85126   0.00002  -0.00088  -0.00018  -0.00106   1.85020
   A25        2.09579  -0.00011   0.00068  -0.00057   0.00011   2.09590
   A26        1.86894   0.00014   0.00162   0.00098   0.00260   1.87154
   A27        1.85011  -0.00001   0.00045   0.00060   0.00105   1.85116
   A28        2.09478   0.00001  -0.00031   0.00017  -0.00014   2.09464
   A29        1.87292  -0.00006  -0.00051  -0.00094  -0.00145   1.87147
   A30        1.85028  -0.00001  -0.00008  -0.00007  -0.00015   1.85013
   A31        2.09271   0.00002  -0.00050   0.00048  -0.00001   2.09270
   A32        1.87328  -0.00001  -0.00060  -0.00002  -0.00062   1.87267
   A33        1.85060   0.00001   0.00008  -0.00039  -0.00031   1.85029
   A34        2.09605  -0.00010   0.00070  -0.00053   0.00016   2.09621
   A35        1.85027   0.00002   0.00099   0.00031   0.00129   1.85157
   A36        1.86950   0.00012   0.00082   0.00108   0.00190   1.87140
   A37        1.87557  -0.00004   0.00078   0.00055   0.00132   1.87689
   A38        1.90494   0.00015   0.00249   0.00156   0.00405   1.90899
   A39        1.89779  -0.00002   0.00125   0.00116   0.00240   1.90018
   A40        1.87522  -0.00010  -0.00005  -0.00044  -0.00049   1.87473
   A41        1.90577   0.00013   0.00084   0.00070   0.00155   1.90732
   A42        1.89757   0.00006  -0.00070   0.00029  -0.00040   1.89717
   A43        1.91713  -0.00005  -0.00236  -0.00187  -0.00423   1.91289
   A44        1.87713  -0.00001  -0.00051  -0.00057  -0.00109   1.87604
   A45        1.90387  -0.00010  -0.00100  -0.00091  -0.00192   1.90195
   A46        1.87518  -0.00001  -0.00024   0.00021  -0.00003   1.87515
   A47        1.91428  -0.00004  -0.00167  -0.00140  -0.00308   1.91121
   A48        1.89974  -0.00001  -0.00049  -0.00022  -0.00071   1.89902
   A49        1.91571  -0.00005   0.00047  -0.00119  -0.00072   1.91498
   A50        1.87811  -0.00008   0.00050  -0.00087  -0.00037   1.87774
   A51        1.90327   0.00001  -0.00036  -0.00033  -0.00068   1.90259
   A52        1.87441  -0.00003  -0.00001   0.00024   0.00023   1.87464
   A53        1.90975   0.00004   0.00088   0.00062   0.00150   1.91125
   A54        1.89646   0.00016  -0.00010   0.00115   0.00105   1.89751
   A55        1.87613   0.00004  -0.00089  -0.00031  -0.00120   1.87493
   A56        1.91700  -0.00012  -0.00165  -0.00167  -0.00332   1.91368
   A57        1.90236   0.00000  -0.00061  -0.00061  -0.00122   1.90114
   A58        1.91567  -0.00017  -0.00021  -0.00141  -0.00162   1.91405
   A59        1.87565   0.00003   0.00046   0.00027   0.00073   1.87638
   A60        1.90010   0.00002   0.00025   0.00008   0.00032   1.90042
   A61        1.90613   0.00006   0.00116   0.00124   0.00240   1.90852
   A62        1.87509  -0.00003   0.00023   0.00038   0.00060   1.87569
   A63        1.89715   0.00007   0.00080   0.00084   0.00164   1.89879
   A64        1.87614  -0.00008  -0.00026  -0.00018  -0.00044   1.87570
   A65        1.90761   0.00008   0.00065   0.00053   0.00118   1.90879
   A66        1.89917  -0.00000   0.00007  -0.00004   0.00004   1.89921
   A67        1.91005   0.00009   0.00117   0.00114   0.00231   1.91236
   A68        1.87557  -0.00006   0.00042   0.00026   0.00067   1.87625
   A69        1.89822   0.00004   0.00111   0.00100   0.00211   1.90032
   A70        1.91359   0.00003  -0.00017  -0.00051  -0.00069   1.91291
   A71        1.87677  -0.00009  -0.00015  -0.00075  -0.00090   1.87587
   A72        1.90204   0.00001  -0.00019  -0.00039  -0.00057   1.90146
    D1       -0.00215   0.00008   0.00086   0.00152   0.00239   0.00024
    D2        2.12347   0.00003  -0.00120  -0.00010  -0.00130   2.12218
    D3       -2.11118   0.00006   0.00105   0.00075   0.00180  -2.10938
    D4        0.01444   0.00001  -0.00101  -0.00087  -0.00188   0.01256
    D5       -0.00107  -0.00001  -0.00039  -0.00047  -0.00086  -0.00193
    D6       -2.10713  -0.00004  -0.00013  -0.00111  -0.00124  -2.10836
    D7        2.11751   0.00005  -0.00053   0.00088   0.00035   2.11785
    D8        0.01145   0.00002  -0.00027   0.00024  -0.00003   0.01142
    D9        0.08757   0.00001   0.00009   0.00076   0.00086   0.08842
   D10        2.15661  -0.00005   0.00022  -0.00080  -0.00058   2.15603
   D11       -2.17000   0.00000   0.00012   0.00054   0.00066  -2.16934
   D12       -0.10096  -0.00006   0.00025  -0.00102  -0.00077  -0.10173
   D13        0.00439  -0.00009  -0.00114  -0.00157  -0.00271   0.00168
   D14        2.11903   0.00001   0.00056   0.00022   0.00078   2.11981
   D15       -2.10941  -0.00002   0.00047   0.00012   0.00059  -2.10882
   D16        0.00523   0.00008   0.00217   0.00191   0.00408   0.00930
   D17       -0.10446  -0.00002   0.00160   0.00071   0.00231  -0.10215
   D18       -2.15961  -0.00005  -0.00166  -0.00181  -0.00348  -2.16309
   D19        2.15601  -0.00006   0.00030  -0.00013   0.00017   2.15619
   D20        0.10087  -0.00009  -0.00296  -0.00265  -0.00562   0.09525
   D21       -0.00342   0.00002   0.00094   0.00057   0.00151  -0.00191
   D22        2.11792   0.00002   0.00022   0.00073   0.00095   2.11888
   D23       -2.10802  -0.00003  -0.00048  -0.00087  -0.00136  -2.10937
   D24        0.01333  -0.00003  -0.00120  -0.00071  -0.00191   0.01142
   D25       -0.10178  -0.00004  -0.00075  -0.00065  -0.00140  -0.10318
   D26       -2.16411  -0.00000   0.00090   0.00026   0.00115  -2.16295
   D27        2.15108   0.00002   0.00042   0.00071   0.00113   2.15221
   D28        0.08875   0.00006   0.00206   0.00162   0.00368   0.09244
   D29        0.00021   0.00005  -0.00047   0.00049   0.00001   0.00022
   D30        2.12418  -0.00000  -0.00097  -0.00032  -0.00130   2.12289
   D31       -2.11136   0.00006   0.00044   0.00067   0.00111  -2.11025
   D32        0.01261   0.00001  -0.00006  -0.00014  -0.00020   0.01242
   D33       -2.16940   0.00003   0.00042   0.00088   0.00130  -2.16810
   D34       -0.10380   0.00002   0.00001  -0.00030  -0.00028  -0.10408
   D35        0.09058  -0.00001  -0.00023   0.00017  -0.00006   0.09051
   D36        2.15618  -0.00002  -0.00064  -0.00101  -0.00164   2.15454
   D37        0.00204  -0.00006   0.00020  -0.00054  -0.00034   0.00170
   D38        2.11789   0.00004  -0.00004   0.00055   0.00051   2.11840
   D39       -2.11002  -0.00002   0.00038   0.00020   0.00058  -2.10943
   D40        0.00584   0.00007   0.00014   0.00129   0.00143   0.00727
   D41       -2.15906  -0.00009  -0.00137  -0.00179  -0.00316  -2.16222
   D42       -0.10430   0.00001   0.00033   0.00008   0.00042  -0.10388
   D43        0.09969  -0.00008  -0.00130  -0.00182  -0.00312   0.09657
   D44        2.15445   0.00002   0.00040   0.00005   0.00045   2.15491
   D45        0.08913   0.00002   0.00019   0.00069   0.00088   0.09000
   D46        2.15291  -0.00003   0.00064   0.00016   0.00080   2.15371
   D47       -2.16538  -0.00001   0.00049   0.00011   0.00060  -2.16478
   D48       -0.10159  -0.00006   0.00094  -0.00042   0.00051  -0.10107
   D49       -0.00033   0.00006  -0.00002   0.00040   0.00038   0.00005
   D50       -2.11190   0.00005   0.00190   0.00057   0.00247  -2.10944
   D51        2.12140  -0.00002  -0.00186  -0.00050  -0.00236   2.11904
   D52        0.00983  -0.00004   0.00006  -0.00033  -0.00027   0.00955
   D53        0.00078  -0.00011  -0.00177  -0.00106  -0.00283  -0.00206
   D54        2.11864  -0.00001   0.00066   0.00029   0.00095   2.11960
   D55       -2.10967  -0.00008  -0.00066  -0.00046  -0.00112  -2.11079
   D56        0.00819   0.00002   0.00177   0.00090   0.00267   0.01086
   D57       -0.10689   0.00010   0.00020   0.00133   0.00154  -0.10536
   D58       -2.16240  -0.00010  -0.00015  -0.00050  -0.00066  -2.16305
   D59        2.15106   0.00014  -0.00081   0.00101   0.00020   2.15126
   D60        0.09555  -0.00006  -0.00117  -0.00083  -0.00199   0.09356
   D61       -0.00086   0.00005   0.00178   0.00067   0.00245   0.00159
   D62       -2.10836   0.00002  -0.00070  -0.00057  -0.00127  -2.10963
   D63        2.12210   0.00001   0.00004   0.00051   0.00055   2.12265
   D64        0.01460  -0.00002  -0.00244  -0.00074  -0.00318   0.01142
   D65        2.15335   0.00006  -0.00067  -0.00035  -0.00101   2.15234
   D66        0.09822  -0.00003  -0.00027  -0.00082  -0.00110   0.09712
   D67       -0.10415  -0.00001   0.00067  -0.00051   0.00016  -0.10399
   D68       -2.15928  -0.00010   0.00107  -0.00099   0.00008  -2.15921
   D69        0.00161  -0.00012  -0.00175  -0.00110  -0.00285  -0.00124
   D70       -2.10882  -0.00006  -0.00098  -0.00031  -0.00130  -2.11012
   D71        2.11841  -0.00001   0.00128   0.00033   0.00162   2.12003
   D72        0.00798   0.00004   0.00205   0.00112   0.00317   0.01114
   D73        0.08704   0.00006   0.00357   0.00187   0.00544   0.09248
   D74        2.15702  -0.00009   0.00075  -0.00060   0.00016   2.15718
   D75       -2.16998   0.00011   0.00145   0.00158   0.00302  -2.16696
   D76       -0.10000  -0.00004  -0.00137  -0.00090  -0.00226  -0.10226
   D77       -0.00117   0.00006  -0.00004   0.00044   0.00040  -0.00077
   D78       -2.11087   0.00004   0.00072   0.00063   0.00135  -2.10952
   D79        2.12044  -0.00002  -0.00101  -0.00077  -0.00177   2.11867
   D80        0.01073  -0.00004  -0.00025  -0.00058  -0.00082   0.00991
   D81        0.09413  -0.00002  -0.00212  -0.00097  -0.00310   0.09104
   D82        2.15255   0.00005   0.00007   0.00098   0.00106   2.15361
   D83       -2.16426   0.00002  -0.00137  -0.00054  -0.00192  -2.16617
   D84       -0.10583   0.00008   0.00082   0.00141   0.00224  -0.10360
   D85       -0.00003   0.00005   0.00180   0.00064   0.00244   0.00241
   D86       -2.10840  -0.00000  -0.00074  -0.00033  -0.00107  -2.10947
   D87        2.12091   0.00006   0.00072   0.00062   0.00134   2.12225
   D88        0.01253   0.00001  -0.00182  -0.00035  -0.00217   0.01036
   D89        2.15393   0.00001  -0.00013  -0.00032  -0.00045   2.15348
   D90        0.09537   0.00001  -0.00042  -0.00046  -0.00089   0.09449
   D91       -0.10236  -0.00002   0.00080  -0.00065   0.00015  -0.10221
   D92       -2.16091  -0.00001   0.00050  -0.00080  -0.00029  -2.16120
   D93       -0.10153   0.00001  -0.00180  -0.00072  -0.00252  -0.10406
   D94       -2.16904   0.00005   0.00036   0.00111   0.00146  -2.16758
   D95        2.15625  -0.00003   0.00018  -0.00050  -0.00031   2.15594
   D96        0.08875   0.00001   0.00234   0.00133   0.00368   0.09242
   D97       -1.89824  -0.00010  -0.00223  -0.00086  -0.00309  -1.90133
   D98        0.16222   0.00004  -0.00162  -0.00012  -0.00174   0.16047
   D99        0.16155   0.00004   0.00183   0.00191   0.00375   0.16530
   D100       2.22201   0.00018   0.00244   0.00265   0.00510   2.22710
   D101       1.88679  -0.00004  -0.00014  -0.00006  -0.00018   1.88661
   D102      -0.16663   0.00007   0.00244   0.00226   0.00470  -0.16192
   D103      -0.15431  -0.00006  -0.00316  -0.00224  -0.00540  -0.15971
   D104      -2.20773   0.00004  -0.00058   0.00007  -0.00052  -2.20825
   D105       1.88609  -0.00003   0.00108  -0.00022   0.00086   1.88695
   D106      -0.16734   0.00009   0.00041   0.00171   0.00212  -0.16522
   D107      -0.15493  -0.00002   0.00105  -0.00024   0.00081  -0.15413
   D108      -2.20836   0.00010   0.00038   0.00169   0.00207  -2.20629
   D109      -1.90931   0.00009   0.00230   0.00187   0.00417  -1.90514
   D110       0.16241   0.00003  -0.00009   0.00020   0.00010   0.16251
   D111       0.16918  -0.00003  -0.00137  -0.00120  -0.00257   0.16661
   D112       2.24089  -0.00009  -0.00376  -0.00287  -0.00663   2.23426
   D113       1.88858  -0.00005  -0.00032  -0.00035  -0.00066   1.88792
   D114      -0.15563  -0.00005  -0.00211  -0.00187  -0.00398  -0.15961
   D115      -0.15843  -0.00001   0.00121   0.00032   0.00153  -0.15690
   D116      -2.20265  -0.00001  -0.00059  -0.00119  -0.00179  -2.20443
   D117      -1.90445  -0.00002  -0.00110   0.00014  -0.00096  -1.90540
   D118       0.15968   0.00010  -0.00011   0.00163   0.00152   0.16120
   D119       0.17257  -0.00012  -0.00045  -0.00196  -0.00240   0.17016
   D120       2.23669  -0.00000   0.00054  -0.00047   0.00007   2.23676
   D121       1.88770   0.00000   0.00044  -0.00015   0.00030   1.88799
   D122      -0.16088   0.00006  -0.00014   0.00028   0.00015  -0.16073
   D123      -0.15395  -0.00008   0.00002  -0.00144  -0.00142  -0.15537
   D124      -2.20253  -0.00002  -0.00057  -0.00100  -0.00156  -2.20409
   D125      -1.90888   0.00013   0.00089   0.00166   0.00255  -1.90633
   D126       0.16494  -0.00005   0.00105   0.00017   0.00121   0.16615
   D127       0.16804   0.00001  -0.00192  -0.00084  -0.00275   0.16528
   D128       2.24186  -0.00017  -0.00176  -0.00233  -0.00409   2.23777
   D129       1.88609   0.00001  -0.00046  -0.00015  -0.00060   1.88549
   D130      -0.15474  -0.00003  -0.00183  -0.00176  -0.00358  -0.15833
   D131      -0.16514   0.00003   0.00192   0.00154   0.00347  -0.16168
   D132      -2.20598  -0.00001   0.00055  -0.00007   0.00048  -2.20550
   D133      -1.89980  -0.00005  -0.00112  -0.00044  -0.00156  -1.90136
   D134       0.16421  -0.00001  -0.00045   0.00008  -0.00038   0.16383
   D135       0.16078   0.00004   0.00081   0.00168   0.00250   0.16328
   D136       2.22479   0.00008   0.00148   0.00220   0.00368   2.22847
   D137       1.88612  -0.00004   0.00057   0.00001   0.00058   1.88670
   D138      -0.16374   0.00004   0.00097   0.00143   0.00239  -0.16135
   D139      -0.15795   0.00002   0.00048  -0.00006   0.00042  -0.15753
   D140      -2.20781   0.00010   0.00087   0.00136   0.00223  -2.20558
   D141      -1.90359  -0.00006  -0.00073  -0.00055  -0.00129  -1.90488
   D142       0.16945  -0.00007  -0.00113  -0.00180  -0.00293   0.16652
   D143       0.16249   0.00003   0.00149   0.00148   0.00297   0.16546
   D144       2.23553   0.00003   0.00109   0.00024   0.00133   2.23686
         Item               Value     Threshold  Converged?
 Maximum Force            0.000502     0.000450     NO 
 RMS     Force            0.000090     0.000300     YES
 Maximum Displacement     0.006719     0.001800     NO 
 RMS     Displacement     0.000995     0.001200     YES
 Predicted change in Energy=-8.817209D-06
 GradGradGradGradGradGradGradGradGradGradGradGradGradGradGradGradGradGrad

                          Input orientation:                          
 ---------------------------------------------------------------------
 Center     Atomic      Atomic             Coordinates (Angstroms)
 Number     Number       Type             X           Y           Z
 ---------------------------------------------------------------------
      1          6           0       -1.044825   -0.026987    2.196302
      2          6           0       -1.513712   -1.244796    1.629557
      3          6           0       -2.419664   -1.216948    0.532193
      4          6           0       -2.854309    0.030110    0.001246
      5          6           0       -2.385698    1.248052    0.568101
      6          6           0       -1.481738    1.220473    1.666331
      7          6           0        1.349724    0.736422   -0.043955
      8          6           0        1.368735   -0.685975   -0.018591
      9          6           0        0.592454   -1.423126   -0.957101
     10          6           0       -0.199881   -0.739380   -1.920471
     11          6           0       -0.218699    0.683517   -1.946297
     12          6           0        0.555096    1.420202   -1.006922
     13          6           0       -0.265465   -2.005870    1.171738
     14          6           0        0.884315   -1.125070    1.368503
     15          6           0       -0.375309   -2.298343   -0.156979
     16          6           0       -1.729612   -1.977606   -0.603844
     17          6           0        0.479622   -0.027728    2.072962
     18          6           0        0.864109    1.177399    1.339705
     19          6           0       -0.413527    2.297991   -0.211179
     20          6           0       -0.234001    1.976630    1.203984
     21          6           0       -1.697556    2.007842   -0.571626
     22          6           0       -1.671621    1.123961   -1.735286
     23          6           0       -1.651063   -1.176832   -1.706779
     24          6           0       -2.443431    0.028325   -1.473450
 ---------------------------------------------------------------------
                    Distance matrix (angstroms):
                    1          2          3          4          5
     1  C    0.000000
     2  C    1.422713   0.000000
     3  C    2.464842   1.423282   0.000000
     4  C    2.845306   2.464545   1.423368   0.000000
     5  C    2.464691   2.846285   2.465495   1.422780   0.000000
     6  C    1.424050   2.465750   2.847278   2.464431   1.422678
     7  C    3.366810   3.863306   4.284377   4.263193   3.819654
     8  C    3.341450   3.367072   3.864875   4.283372   4.263852
     9  C    3.817570   3.340439   3.366505   3.861411   4.281451
    10  C    4.262541   3.818939   3.342315   3.366170   3.862729
    11  C    4.283506   4.264056   3.820853   3.341601   3.367014
    12  C    3.861962   4.281729   4.262937   3.817433   3.340450
    13  C    2.360744   1.531976   2.381593   3.495337   3.930365
    14  C    2.369097   2.415164   3.409418   4.145015   4.118900
    15  C    3.338449   2.365932   2.413247   3.404728   4.140570
    16  C    3.480613   2.360446   1.531455   2.379496   3.494105
    17  C    1.529429   2.377235   3.492001   3.925615   3.478833
    18  C    2.414194   3.406622   4.143445   4.115140   3.340900
    19  C    3.405881   4.141262   4.114849   3.338536   2.366244
    20  C    2.378363   3.492328   3.927768   3.478725   2.359019
    21  C    3.496858   3.931750   3.484125   2.361712   1.532906
    22  C    4.144266   4.118023   3.343783   2.368713   2.414726
    23  C    4.113844   3.339853   2.367563   2.412853   3.405118
    24  C    3.927625   3.480497   2.360905   1.530866   2.378865
                    6          7          8          9         10
     6  C    0.000000
     7  C    3.343136   0.000000
     8  C    3.820825   1.422750   0.000000
     9  C    4.263013   2.463928   1.423660   0.000000
    10  C    4.283612   2.846152   2.465879   1.422457   0.000000
    11  C    3.864539   2.466101   2.848071   2.464634   1.423255
    12  C    3.366729   1.423480   2.464709   2.844010   2.463403
    13  C    3.483279   3.406892   2.414460   2.368031   3.342163
    14  C    3.344919   2.382603   1.533459   2.362722   3.484478
    15  C    4.114694   3.492608   2.379196   1.530609   2.360306
    16  C    3.929738   4.142672   3.407431   2.413343   2.367865
    17  C    2.360146   2.412953   2.366095   3.337837   4.112868
    18  C    2.368869   1.531273   2.360461   3.480208   3.928723
    19  C    2.413952   2.361253   3.481034   3.926208   3.491840
    20  C    1.530485   2.367204   3.339598   4.112379   4.140060
    21  C    2.382221   3.343780   4.118815   4.142979   3.407293
    22  C    3.408279   3.484152   3.932770   3.495606   2.381670
    23  C    4.141692   3.928135   3.494295   2.378244   1.530672
    24  C    3.493464   4.114959   4.142397   3.404398   2.413031
                   11         12         13         14         15
    11  C    0.000000
    12  C    1.422634   0.000000
    13  C    4.117903   4.142204   0.000000
    14  C    3.933894   3.497062   1.461684   0.000000
    15  C    3.481045   3.926275   1.364953   2.300069   0.000000
    16  C    3.341647   4.114299   2.301568   3.383724   1.461745
    17  C    4.141010   3.404099   2.297914   1.365357   3.295336
    18  C    3.494883   2.379308   3.381916   2.302738   3.982086
    19  C    2.378049   1.530343   4.523008   3.987121   4.596812
    20  C    3.405385   2.412549   3.982754   3.301248   4.488606
    21  C    2.414658   2.368384   4.604355   4.499478   4.523660
    22  C    1.532807   2.361470   4.497100   4.607001   3.985429
    23  C    2.360070   3.478724   3.300461   3.985998   2.299394
    24  C    2.366916   3.338583   3.984784   4.525584   3.379883
                   16         17         18         19         20
    16  C    0.000000
    17  C    3.980959   0.000000
    18  C    4.523144   1.462131   0.000000
    19  C    4.490768   3.379938   2.300722   0.000000
    20  C    4.597942   2.298223   1.364931   1.462255   0.000000
    21  C    3.985707   3.984658   3.302265   1.364859   2.301251
    22  C    3.302005   4.522941   3.986021   2.298707   3.381288
    23  C    1.365238   4.488508   4.598865   3.980290   4.519394
    24  C    2.299893   4.596131   4.491552   3.296244   3.980719
                   21         22         23         24
    21  C    0.000000
    22  C    1.461514   0.000000
    23  C    3.381255   2.301061   0.000000
    24  C    2.299588   1.365528   1.461059   0.000000
 Stoichiometry    C24
 Framework group  C1[X(C24)]
 Deg. of freedom    66
 Full point group                 C1      NOp   1
 Largest Abelian subgroup         C1      NOp   1
 Largest concise Abelian subgroup C1      NOp   1
                         Standard orientation:                         
 ---------------------------------------------------------------------
 Center     Atomic      Atomic             Coordinates (Angstroms)
 Number     Number       Type             X           Y           Z
 ---------------------------------------------------------------------
      1          6           0        1.106832    0.893339    1.635954
      2          6           0        1.328469   -0.512004    1.635227
      3          6           0        0.221957   -1.407192    1.635809
      4          6           0       -1.106114   -0.895134    1.635043
      5          6           0       -1.327906    0.510252    1.636053
      6          6           0       -0.222023    1.405257    1.637559
      7          6           0        0.455755    1.349368   -1.635674
      8          6           0        1.396073    0.281652   -1.636273
      9          6           0        0.939124   -1.066682   -1.635748
     10          6           0       -0.455443   -1.346981   -1.636586
     11          6           0       -1.396263   -0.279032   -1.636429
     12          6           0       -0.939711    1.068353   -1.634487
     13          6           0        2.154943   -0.808681    0.379888
     14          6           0        2.262772    0.434950   -0.380554
     15          6           0        1.505039   -1.736722   -0.381335
     16          6           0        0.376212   -2.269275    0.379476
     17          6           0        1.775445    1.457678    0.381509
     18          6           0        0.753033    2.173712   -0.379935
     19          6           0       -1.505823    1.736805   -0.379641
     20          6           0       -0.375645    2.266778    0.381945
     21          6           0       -2.156003    0.808670    0.381063
     22          6           0       -2.261513   -0.434136   -0.380729
     23          6           0       -0.752854   -2.171614   -0.381802
     24          6           0       -1.776356   -1.459363    0.379667
 ---------------------------------------------------------------------
 Rotational constants (GHZ):      0.5420010      0.5413909      0.4797374
 Standard basis: 6-31G(d,p) (6D, 7F)
 There are   360 symmetry adapted cartesian basis functions of A   symmetry.
 There are   360 symmetry adapted basis functions of A   symmetry.
   360 basis functions,   672 primitive gaussians,   360 cartesian basis functions
    72 alpha electrons       72 beta electrons
       nuclear repulsion energy      1906.4119442381 Hartrees.
 NAtoms=   24 NActive=   24 NUniq=   24 SFac= 1.00D+00 NAtFMM=   60 NAOKFM=F Big=F
 Integral buffers will be    131072 words long.
 Raffenetti 2 integral format.
 Two-electron integral symmetry is turned on.
 One-electron integrals computed using PRISM.
 NBasis=   360 RedAO= T EigKep=  5.41D-04  NBF=   360
 NBsUse=   360 1.00D-06 EigRej= -1.00D+00 NBFU=   360
 Initial guess from the checkpoint file:  "/scratch/tmp/3419169/Gau-146785.chk"
 B after Tr=     0.000000   -0.000000   -0.000000
         Rot=    0.997588    0.000003    0.000198   -0.069409 Ang=   7.96 deg.
 Requested convergence on RMS density matrix=1.00D-08 within  64 cycles.
 Requested convergence on MAX density matrix=1.00D-06.
 Requested convergence on             energy=1.00D-06.
 No special actions if energy rises.
 SCF Done:  E(RB3LYP) =  -913.839803888     A.U. after   12 cycles
            NFock= 12  Conv=0.92D-08     -V/T= 2.0090
 QCSCF skips out because SCF is already converged.
 Calling FoFJK, ICntrl=      2127 FMM=F ISym2X=0 I1Cent= 0 IOpClX= 0 NMat=1 NMatS=1 NMatT=0.
 ***** Axes restored to original set *****
 -------------------------------------------------------------------
 Center     Atomic                   Forces (Hartrees/Bohr)
 Number     Number              X              Y              Z
 -------------------------------------------------------------------
      1        6          -0.000443269    0.000482154   -0.000161641
      2        6          -0.000303065   -0.000138051    0.000160573
      3        6           0.000332190    0.000154451   -0.000029982
      4        6          -0.000097990   -0.000372483    0.000020467
      5        6          -0.000291769    0.000239300   -0.000034028
      6        6           0.000237201   -0.000487397   -0.000049121
      7        6           0.000117696   -0.000014892   -0.000048420
      8        6          -0.000622058   -0.000126514   -0.000017320
      9        6           0.000820191   -0.000277764    0.000607893
     10        6          -0.000055629    0.000232940   -0.000461434
     11        6          -0.000134028   -0.000164159    0.000326742
     12        6           0.000040750    0.000250396   -0.000588961
     13        6           0.000224675   -0.000169142    0.000238463
     14        6          -0.000321198    0.000537189   -0.000542757
     15        6           0.000256546   -0.000281013   -0.000370988
     16        6          -0.000159619    0.000459526    0.000226977
     17        6           0.000723896   -0.000455892    0.000363787
     18        6          -0.000215050    0.000238797    0.000269238
     19        6           0.000431868    0.000229864    0.000340464
     20        6          -0.000104264    0.000265664   -0.000148015
     21        6          -0.000271803   -0.000118259   -0.000128968
     22        6           0.000157518   -0.000464798    0.000152898
     23        6          -0.000098077   -0.001018209   -0.000131713
     24        6          -0.000224711    0.000998294    0.000005849
 -------------------------------------------------------------------
 Cartesian Forces:  Max     0.001018209 RMS     0.000354704

 GradGradGradGradGradGradGradGradGradGradGradGradGradGradGradGradGradGrad
 Berny optimization.
 Using GEDIIS/GDIIS optimizer.
 FormGI is forming the generalized inverse of G from B-inverse, IUseBI=4.
 Internal  Forces:  Max     0.000494064 RMS     0.000091160
 Search for a local minimum.
 Step number   8 out of a maximum of  144
 All quantities printed in internal units (Hartrees-Bohrs-Radians)
 Mixed Optimization -- En-DIIS/RFO-DIIS
 Swapping is turned off.
 Update second derivatives using D2CorX and points    3    4    5    6    7
                                                      8
 DE= -8.12D-05 DEPred=-8.82D-06 R= 9.21D+00
 TightC=F SS=  1.41D+00  RLast= 2.95D-02 DXNew= 1.4270D+00 8.8456D-02
 Trust test= 9.21D+00 RLast= 2.95D-02 DXMaxT set to 8.49D-01
 ITU=  1  0  1  1  1  1  1  0
     Eigenvalues ---    0.01350   0.03182   0.03694   0.04037   0.04327
     Eigenvalues ---    0.04485   0.04792   0.05097   0.05126   0.05491
     Eigenvalues ---    0.06170   0.06419   0.06910   0.07071   0.07218
     Eigenvalues ---    0.07405   0.08042   0.08202   0.08269   0.08435
     Eigenvalues ---    0.08503   0.08516   0.08612   0.09347   0.09511
     Eigenvalues ---    0.09668   0.10163   0.10270   0.11345   0.12187
     Eigenvalues ---    0.16139   0.16266   0.17382   0.17790   0.17942
     Eigenvalues ---    0.18047   0.18598   0.21990   0.22157   0.22921
     Eigenvalues ---    0.23284   0.26503   0.26910   0.28270   0.29219
     Eigenvalues ---    0.29872   0.31674   0.32137   0.32859   0.33712
     Eigenvalues ---    0.34833   0.35422   0.36138   0.36587   0.36595
     Eigenvalues ---    0.37756   0.38441   0.39379   0.39637   0.40540
     Eigenvalues ---    0.40613   0.41698   0.42219   0.42675   0.43714
     Eigenvalues ---    0.46947
 En-DIIS/RFO-DIIS IScMMF=        0 using points:     8    7    6    5    4
 RFO step:  Lambda=-4.30214867D-06.
 DidBck=F Rises=F RFO-DIIS coefs:    0.90986    0.37396   -0.48983    0.17830    0.02771
 Iteration  1 RMS(Cart)=  0.00061863 RMS(Int)=  0.00000163
 Iteration  2 RMS(Cart)=  0.00000068 RMS(Int)=  0.00000142
 Variable       Old X    -DE/DX   Delta X   Delta X   Delta X     New X
                                 (Linear)    (Quad)   (Total)
    R1        2.68854   0.00010   0.00011   0.00055   0.00066   2.68919
    R2        2.69107  -0.00019   0.00014  -0.00064  -0.00050   2.69057
    R3        2.89020   0.00030  -0.00014   0.00051   0.00037   2.89057
    R4        2.68961  -0.00006   0.00009  -0.00016  -0.00006   2.68955
    R5        2.89502   0.00018  -0.00021  -0.00080  -0.00102   2.89400
    R6        2.68978   0.00002   0.00002  -0.00056  -0.00053   2.68924
    R7        2.89403   0.00004   0.00043   0.00034   0.00077   2.89480
    R8        2.68866   0.00005   0.00001   0.00051   0.00052   2.68919
    R9        2.89292  -0.00004   0.00021   0.00024   0.00045   2.89337
   R10        2.68847   0.00008   0.00008   0.00006   0.00014   2.68861
   R11        2.89677  -0.00001  -0.00009  -0.00083  -0.00091   2.89586
   R12        2.89220   0.00016   0.00013   0.00044   0.00057   2.89277
   R13        2.68861   0.00014  -0.00024   0.00055   0.00032   2.68892
   R14        2.68999   0.00011  -0.00029   0.00036   0.00007   2.69006
   R15        2.89369   0.00020   0.00037   0.00059   0.00095   2.89464
   R16        2.69033  -0.00030  -0.00032  -0.00027  -0.00059   2.68973
   R17        2.89782  -0.00012   0.00024  -0.00172  -0.00148   2.89634
   R18        2.68805   0.00040  -0.00020   0.00020   0.00000   2.68806
   R19        2.89243  -0.00007   0.00007   0.00158   0.00166   2.89409
   R20        2.68956   0.00007   0.00028   0.00070   0.00098   2.69054
   R21        2.89255   0.00016   0.00003   0.00019   0.00022   2.89277
   R22        2.68839   0.00004  -0.00018  -0.00053  -0.00071   2.68768
   R23        2.89659   0.00005   0.00026  -0.00169  -0.00143   2.89515
   R24        2.89193   0.00009   0.00021   0.00163   0.00184   2.89377
   R25        2.76218   0.00002   0.00009   0.00030   0.00039   2.76257
   R26        2.57939   0.00008  -0.00001   0.00032   0.00031   2.57970
   R27        2.58015  -0.00011  -0.00030  -0.00035  -0.00065   2.57950
   R28        2.76230   0.00025   0.00018  -0.00041  -0.00022   2.76207
   R29        2.57993  -0.00012  -0.00016  -0.00008  -0.00024   2.57968
   R30        2.76303   0.00005  -0.00010   0.00075   0.00065   2.76368
   R31        2.57935   0.00001  -0.00014   0.00007  -0.00007   2.57928
   R32        2.76326  -0.00005  -0.00019  -0.00098  -0.00118   2.76208
   R33        2.57921   0.00027   0.00015   0.00029   0.00044   2.57965
   R34        2.76186   0.00008   0.00010   0.00045   0.00055   2.76241
   R35        2.58047  -0.00020  -0.00033  -0.00049  -0.00081   2.57966
   R36        2.76100   0.00049   0.00016   0.00123   0.00138   2.76239
    A1        2.09493   0.00006   0.00004  -0.00009  -0.00006   2.09487
    A2        1.87126  -0.00005  -0.00006   0.00051   0.00044   1.87170
    A3        1.85066   0.00002  -0.00005   0.00018   0.00013   1.85079
    A4        2.09459  -0.00003  -0.00016  -0.00062  -0.00078   2.09381
    A5        1.85017  -0.00001  -0.00003  -0.00033  -0.00036   1.84981
    A6        1.87334  -0.00000  -0.00023  -0.00111  -0.00134   1.87199
    A7        2.09338   0.00000   0.00016   0.00096   0.00113   2.09450
    A8        1.84981   0.00003   0.00010   0.00041   0.00051   1.85032
    A9        1.87135   0.00004   0.00014   0.00086   0.00100   1.87235
   A10        2.09532  -0.00000  -0.00004  -0.00053  -0.00057   2.09475
   A11        1.85080   0.00005  -0.00015  -0.00002  -0.00017   1.85063
   A12        1.87171  -0.00006  -0.00006   0.00003  -0.00003   1.87168
   A13        2.09467  -0.00003  -0.00002  -0.00023  -0.00025   2.09442
   A14        1.85035   0.00000  -0.00003   0.00002  -0.00001   1.85034
   A15        1.87373  -0.00003  -0.00012  -0.00090  -0.00102   1.87271
   A16        2.09349  -0.00000   0.00002   0.00051   0.00053   2.09401
   A17        1.87035   0.00008   0.00000   0.00064   0.00064   1.87099
   A18        1.84963   0.00001   0.00008   0.00015   0.00023   1.84986
   A19        2.09412   0.00001  -0.00000  -0.00060  -0.00060   2.09352
   A20        1.85047  -0.00002  -0.00002  -0.00006  -0.00008   1.85039
   A21        1.87120   0.00002  -0.00049  -0.00009  -0.00058   1.87062
   A22        2.09280   0.00013   0.00002   0.00116   0.00118   2.09398
   A23        1.87358  -0.00004  -0.00017  -0.00015  -0.00032   1.87325
   A24        1.85020   0.00004  -0.00023  -0.00025  -0.00049   1.84972
   A25        2.09590  -0.00009   0.00012  -0.00055  -0.00043   2.09547
   A26        1.87154   0.00008   0.00036   0.00102   0.00138   1.87291
   A27        1.85116  -0.00009   0.00017  -0.00015   0.00003   1.85119
   A28        2.09464  -0.00004  -0.00013  -0.00066  -0.00079   2.09385
   A29        1.87147  -0.00003  -0.00015  -0.00023  -0.00039   1.87109
   A30        1.85013   0.00001  -0.00006  -0.00002  -0.00008   1.85005
   A31        2.09270   0.00008  -0.00013   0.00125   0.00112   2.09382
   A32        1.87267   0.00003  -0.00009  -0.00004  -0.00013   1.87253
   A33        1.85029  -0.00002   0.00007  -0.00022  -0.00015   1.85015
   A34        2.09621  -0.00010   0.00011  -0.00060  -0.00049   2.09573
   A35        1.85157  -0.00011   0.00039  -0.00036   0.00002   1.85159
   A36        1.87140   0.00011   0.00011   0.00100   0.00111   1.87251
   A37        1.87689  -0.00003   0.00004   0.00005   0.00009   1.87698
   A38        1.90899   0.00005   0.00048   0.00191   0.00239   1.91139
   A39        1.90018  -0.00006   0.00002   0.00084   0.00086   1.90105
   A40        1.87473  -0.00000   0.00005   0.00022   0.00027   1.87500
   A41        1.90732   0.00012   0.00031   0.00119   0.00150   1.90882
   A42        1.89717   0.00009  -0.00006   0.00061   0.00055   1.89772
   A43        1.91289  -0.00006  -0.00024  -0.00209  -0.00233   1.91056
   A44        1.87604   0.00008  -0.00014  -0.00025  -0.00039   1.87565
   A45        1.90195  -0.00012  -0.00022  -0.00136  -0.00159   1.90036
   A46        1.87515   0.00004  -0.00009   0.00047   0.00038   1.87553
   A47        1.91121   0.00005  -0.00018  -0.00094  -0.00112   1.91009
   A48        1.89902  -0.00001  -0.00008   0.00004  -0.00003   1.89899
   A49        1.91498  -0.00003   0.00012  -0.00099  -0.00087   1.91412
   A50        1.87774  -0.00011   0.00003  -0.00078  -0.00075   1.87699
   A51        1.90259   0.00003  -0.00017  -0.00047  -0.00064   1.90195
   A52        1.87464  -0.00008   0.00010  -0.00017  -0.00007   1.87457
   A53        1.91125  -0.00002   0.00035   0.00001   0.00037   1.91162
   A54        1.89751   0.00010   0.00012   0.00079   0.00091   1.89842
   A55        1.87493   0.00012  -0.00013  -0.00005  -0.00018   1.87474
   A56        1.91368  -0.00012  -0.00020  -0.00192  -0.00212   1.91156
   A57        1.90114  -0.00006   0.00001  -0.00098  -0.00097   1.90017
   A58        1.91405  -0.00008  -0.00013  -0.00091  -0.00104   1.91301
   A59        1.87638   0.00003  -0.00004   0.00049   0.00046   1.87684
   A60        1.90042  -0.00001  -0.00009   0.00033   0.00024   1.90067
   A61        1.90852   0.00004   0.00010   0.00150   0.00160   1.91012
   A62        1.87569  -0.00003   0.00007  -0.00011  -0.00004   1.87565
   A63        1.89879   0.00002   0.00016   0.00066   0.00082   1.89960
   A64        1.87570   0.00003  -0.00016   0.00029   0.00013   1.87583
   A65        1.90879   0.00009   0.00007   0.00098   0.00105   1.90984
   A66        1.89921  -0.00001  -0.00001   0.00032   0.00031   1.89952
   A67        1.91236   0.00003   0.00020   0.00040   0.00060   1.91296
   A68        1.87625  -0.00012   0.00004  -0.00030  -0.00026   1.87598
   A69        1.90032  -0.00003   0.00012   0.00063   0.00074   1.90106
   A70        1.91291   0.00009   0.00007  -0.00041  -0.00033   1.91258
   A71        1.87587  -0.00008   0.00004  -0.00060  -0.00056   1.87531
   A72        1.90146  -0.00001   0.00005  -0.00036  -0.00031   1.90116
    D1        0.00024   0.00002   0.00017   0.00124   0.00141   0.00165
    D2        2.12218  -0.00002  -0.00029  -0.00096  -0.00125   2.12093
    D3       -2.10938  -0.00001   0.00027   0.00063   0.00089  -2.10848
    D4        0.01256  -0.00004  -0.00019  -0.00157  -0.00176   0.01080
    D5       -0.00193   0.00006   0.00006   0.00005   0.00011  -0.00182
    D6       -2.10836  -0.00002  -0.00007  -0.00106  -0.00113  -2.10949
    D7        2.11785   0.00005  -0.00005   0.00082   0.00078   2.11863
    D8        0.01142  -0.00003  -0.00017  -0.00029  -0.00046   0.01096
    D9        0.08842   0.00014   0.00012   0.00194   0.00206   0.09049
   D10        2.15603   0.00009   0.00000   0.00037   0.00037   2.15640
   D11       -2.16934   0.00008   0.00015   0.00162   0.00177  -2.16757
   D12       -0.10173   0.00004   0.00003   0.00005   0.00008  -0.10165
   D13        0.00168  -0.00008  -0.00034  -0.00181  -0.00216  -0.00047
   D14        2.11981   0.00000   0.00005   0.00035   0.00040   2.12021
   D15       -2.10882  -0.00004   0.00002   0.00003   0.00004  -2.10878
   D16        0.00930   0.00004   0.00041   0.00219   0.00260   0.01190
   D17       -0.10215  -0.00005   0.00021   0.00080   0.00100  -0.10115
   D18       -2.16309   0.00000  -0.00011  -0.00128  -0.00139  -2.16448
   D19        2.15619  -0.00010  -0.00016  -0.00086  -0.00102   2.15516
   D20        0.09525  -0.00004  -0.00047  -0.00294  -0.00341   0.09183
   D21       -0.00191   0.00006   0.00030   0.00109   0.00139  -0.00052
   D22        2.11888   0.00003   0.00006   0.00076   0.00082   2.11970
   D23       -2.10937  -0.00002  -0.00008  -0.00087  -0.00095  -2.11032
   D24        0.01142  -0.00005  -0.00031  -0.00121  -0.00152   0.00989
   D25       -0.10318  -0.00003  -0.00020  -0.00087  -0.00107  -0.10425
   D26       -2.16295  -0.00006   0.00004  -0.00067  -0.00064  -2.16359
   D27        2.15221   0.00002   0.00015   0.00110   0.00125   2.15346
   D28        0.09244  -0.00001   0.00039   0.00129   0.00169   0.09412
   D29        0.00022   0.00001  -0.00008   0.00020   0.00012   0.00034
   D30        2.12289  -0.00004  -0.00028  -0.00115  -0.00143   2.12146
   D31       -2.11025  -0.00001   0.00021   0.00057   0.00077  -2.10948
   D32        0.01242  -0.00006   0.00000  -0.00078  -0.00078   0.01164
   D33       -2.16810   0.00013   0.00003   0.00182   0.00185  -2.16625
   D34       -0.10408   0.00012   0.00016   0.00083   0.00099  -0.10309
   D35        0.09051   0.00012  -0.00015   0.00119   0.00104   0.09155
   D36        2.15454   0.00011  -0.00002   0.00020   0.00017   2.15471
   D37        0.00170  -0.00007  -0.00010  -0.00077  -0.00087   0.00083
   D38        2.11840   0.00004  -0.00002   0.00057   0.00055   2.11896
   D39       -2.10943  -0.00003   0.00006   0.00013   0.00019  -2.10924
   D40        0.00727   0.00008   0.00014   0.00147   0.00161   0.00888
   D41       -2.16222  -0.00002  -0.00014  -0.00131  -0.00145  -2.16368
   D42       -0.10388   0.00000   0.00014   0.00022   0.00036  -0.10352
   D43        0.09657  -0.00007  -0.00026  -0.00214  -0.00240   0.09417
   D44        2.15491  -0.00004   0.00002  -0.00061  -0.00059   2.15432
   D45        0.09000   0.00002   0.00027   0.00048   0.00076   0.09076
   D46        2.15371  -0.00002   0.00008   0.00066   0.00073   2.15444
   D47       -2.16478  -0.00003   0.00019  -0.00063  -0.00044  -2.16522
   D48       -0.10107  -0.00007   0.00000  -0.00046  -0.00046  -0.10153
   D49        0.00005   0.00009   0.00011   0.00070   0.00080   0.00086
   D50       -2.10944  -0.00002   0.00056   0.00035   0.00091  -2.10853
   D51        2.11904   0.00011  -0.00057   0.00011  -0.00046   2.11858
   D52        0.00955   0.00000  -0.00012  -0.00023  -0.00035   0.00920
   D53       -0.00206   0.00003  -0.00059  -0.00014  -0.00073  -0.00279
   D54        2.11960   0.00001  -0.00004   0.00048   0.00044   2.12004
   D55       -2.11079   0.00003  -0.00014   0.00044   0.00030  -2.11050
   D56        0.01086   0.00001   0.00041   0.00106   0.00147   0.01233
   D57       -0.10536   0.00005   0.00025   0.00123   0.00148  -0.10387
   D58       -2.16305  -0.00001  -0.00015   0.00037   0.00023  -2.16283
   D59        2.15126   0.00007  -0.00007   0.00041   0.00034   2.15160
   D60        0.09356   0.00001  -0.00046  -0.00045  -0.00091   0.09265
   D61        0.00159  -0.00012   0.00048  -0.00048  -0.00000   0.00159
   D62       -2.10963  -0.00000  -0.00014  -0.00077  -0.00092  -2.11055
   D63        2.12265  -0.00005   0.00007  -0.00011  -0.00004   2.12261
   D64        0.01142   0.00007  -0.00056  -0.00040  -0.00096   0.01047
   D65        2.15234   0.00012   0.00009   0.00066   0.00075   2.15309
   D66        0.09712  -0.00005  -0.00005  -0.00083  -0.00088   0.09625
   D67       -0.10399  -0.00004   0.00032  -0.00049  -0.00017  -0.10416
   D68       -2.15921  -0.00021   0.00019  -0.00198  -0.00180  -2.16101
   D69       -0.00124   0.00002  -0.00059  -0.00029  -0.00087  -0.00211
   D70       -2.11012   0.00006  -0.00029   0.00041   0.00012  -2.11000
   D71        2.12003  -0.00001   0.00012   0.00058   0.00071   2.12074
   D72        0.01114   0.00003   0.00042   0.00128   0.00170   0.01284
   D73        0.09248  -0.00008   0.00065   0.00117   0.00182   0.09430
   D74        2.15718  -0.00021   0.00017  -0.00175  -0.00158   2.15560
   D75       -2.16696   0.00003   0.00017   0.00129   0.00146  -2.16550
   D76       -0.10226  -0.00010  -0.00031  -0.00163  -0.00193  -0.10420
   D77       -0.00077   0.00010   0.00010   0.00084   0.00094   0.00018
   D78       -2.10952   0.00005   0.00017   0.00029   0.00047  -2.10906
   D79        2.11867   0.00005  -0.00024   0.00005  -0.00019   2.11848
   D80        0.00991  -0.00000  -0.00017  -0.00050  -0.00067   0.00924
   D81        0.09104   0.00006  -0.00039  -0.00051  -0.00090   0.09014
   D82        2.15361  -0.00003  -0.00012   0.00029   0.00017   2.15378
   D83       -2.16617   0.00012  -0.00010   0.00046   0.00035  -2.16582
   D84       -0.10360   0.00003   0.00017   0.00126   0.00142  -0.10217
   D85        0.00241  -0.00013   0.00048  -0.00062  -0.00014   0.00227
   D86       -2.10947  -0.00000  -0.00021  -0.00057  -0.00078  -2.11026
   D87        2.12225  -0.00005   0.00033  -0.00001   0.00033   2.12258
   D88        0.01036   0.00007  -0.00036   0.00005  -0.00031   0.01005
   D89        2.15348   0.00005   0.00007   0.00072   0.00079   2.15427
   D90        0.09449   0.00000   0.00014  -0.00036  -0.00023   0.09426
   D91       -0.10221  -0.00005   0.00024  -0.00064  -0.00041  -0.10262
   D92       -2.16120  -0.00010   0.00030  -0.00172  -0.00142  -2.16262
   D93       -0.10406  -0.00003  -0.00023  -0.00137  -0.00160  -0.10566
   D94       -2.16758   0.00003  -0.00006   0.00088   0.00082  -2.16676
   D95        2.15594  -0.00016   0.00022  -0.00170  -0.00148   2.15446
   D96        0.09242  -0.00009   0.00039   0.00055   0.00094   0.09336
   D97       -1.90133  -0.00003  -0.00050  -0.00132  -0.00182  -1.90315
   D98        0.16047   0.00015  -0.00013   0.00054   0.00041   0.16088
   D99        0.16530  -0.00002   0.00011   0.00144   0.00155   0.16684
   D100       2.22710   0.00017   0.00048   0.00330   0.00378   2.23088
   D101       1.88661   0.00003  -0.00010   0.00016   0.00007   1.88668
   D102      -0.16192   0.00004   0.00034   0.00244   0.00278  -0.15914
   D103      -0.15971   0.00007  -0.00043  -0.00147  -0.00189  -0.16161
   D104      -2.20825   0.00008   0.00001   0.00082   0.00082  -2.20743
   D105       1.88695  -0.00007   0.00022  -0.00015   0.00007   1.88701
   D106      -0.16522   0.00007   0.00022   0.00163   0.00185  -0.16337
   D107      -0.15413  -0.00018   0.00001  -0.00143  -0.00141  -0.15554
   D108      -2.20629  -0.00005   0.00001   0.00036   0.00037  -2.20592
   D109      -1.90514   0.00008   0.00035   0.00216   0.00251  -1.90263
   D110       0.16251   0.00015   0.00005   0.00133   0.00137   0.16388
   D111       0.16661  -0.00001  -0.00014  -0.00121  -0.00135   0.16526
   D112       2.23426   0.00006  -0.00045  -0.00205  -0.00249   2.23177
   D113       1.88792  -0.00005  -0.00007  -0.00054  -0.00061   1.88731
   D114      -0.15961   0.00009  -0.00029  -0.00078  -0.00107  -0.16068
   D115      -0.15690  -0.00012   0.00019  -0.00060  -0.00041  -0.15731
   D116      -2.20443   0.00003  -0.00004  -0.00083  -0.00087  -2.20530
   D117      -1.90540  -0.00001  -0.00038  -0.00001  -0.00039  -1.90579
   D118       0.16120  -0.00002   0.00017   0.00034   0.00050   0.16170
   D119       0.17016  -0.00009  -0.00031  -0.00190  -0.00221   0.16795
   D120       2.23676  -0.00010   0.00023  -0.00155  -0.00131   2.23545
   D121       1.88799  -0.00005   0.00013  -0.00025  -0.00011   1.88788
   D122      -0.16073  -0.00003   0.00030  -0.00051  -0.00021  -0.16094
   D123      -0.15537   0.00000  -0.00026  -0.00051  -0.00077  -0.15613
   D124      -2.20409   0.00002  -0.00010  -0.00077  -0.00086  -2.20495
   D125      -1.90633   0.00013   0.00013   0.00178   0.00191  -1.90443
   D126       0.16615   0.00005  -0.00009   0.00115   0.00106   0.16721
   D127       0.16528   0.00002  -0.00017  -0.00107  -0.00124   0.16404
   D128       2.23777  -0.00006  -0.00039  -0.00170  -0.00209   2.23568
   D129       1.88549   0.00006  -0.00002   0.00016   0.00014   1.88564
   D130      -0.15833   0.00006  -0.00025  -0.00092  -0.00117  -0.15950
   D131      -0.16168   0.00002   0.00024   0.00188   0.00213  -0.15955
   D132      -2.20550   0.00003   0.00002   0.00080   0.00081  -2.20468
   D133      -1.90136  -0.00005  -0.00022  -0.00090  -0.00112  -1.90248
   D134       0.16383   0.00007  -0.00023   0.00060   0.00036   0.16419
   D135       0.16328  -0.00001   0.00002   0.00117   0.00119   0.16447
   D136       2.22847   0.00011   0.00001   0.00267   0.00268   2.23115
   D137       1.88670  -0.00004   0.00009   0.00003   0.00012   1.88681
   D138      -0.16135   0.00001  -0.00003   0.00119   0.00115  -0.16020
   D139      -0.15753  -0.00012   0.00024  -0.00105  -0.00081  -0.15834
   D140      -2.20558  -0.00006   0.00013   0.00010   0.00023  -2.20535
   D141      -1.90488  -0.00008  -0.00021  -0.00059  -0.00079  -1.90567
   D142       0.16652  -0.00003  -0.00007  -0.00160  -0.00167   0.16485
   D143       0.16546  -0.00013   0.00012   0.00006   0.00018   0.16565
   D144       2.23686  -0.00008   0.00026  -0.00095  -0.00069   2.23617
         Item               Value     Threshold  Converged?
 Maximum Force            0.000494     0.000450     NO 
 RMS     Force            0.000091     0.000300     YES
 Maximum Displacement     0.004227     0.001800     NO 
 RMS     Displacement     0.000619     0.001200     YES
 Predicted change in Energy=-5.535989D-06
 GradGradGradGradGradGradGradGradGradGradGradGradGradGradGradGradGradGrad

                          Input orientation:                          
 ---------------------------------------------------------------------
 Center     Atomic      Atomic             Coordinates (Angstroms)
 Number     Number       Type             X           Y           Z
 ---------------------------------------------------------------------
      1          6           0       -1.044629   -0.026866    2.196286
      2          6           0       -1.514078   -1.245095    1.630037
      3          6           0       -2.419099   -1.216376    0.531973
      4          6           0       -2.854641    0.030083    0.001111
      5          6           0       -2.386046    1.248223    0.568250
      6          6           0       -1.481501    1.220210    1.666082
      7          6           0        1.350109    0.736886   -0.044227
      8          6           0        1.368312   -0.685693   -0.019067
      9          6           0        0.592463   -1.423537   -0.956915
     10          6           0       -0.199679   -0.740130   -1.920685
     11          6           0       -0.218488    0.683300   -1.945580
     12          6           0        0.554955    1.420532   -1.006909
     13          6           0       -0.266385   -2.005069    1.170686
     14          6           0        0.883499   -1.124021    1.367269
     15          6           0       -0.375680   -2.300580   -0.157573
     16          6           0       -1.729761   -1.978721   -0.603918
     17          6           0        0.480043   -0.027647    2.073279
     18          6           0        0.863747    1.177949    1.339700
     19          6           0       -0.413158    2.299832   -0.210340
     20          6           0       -0.234027    1.977587    1.204029
     21          6           0       -1.696935    2.007352   -0.570683
     22          6           0       -1.670765    1.123206   -1.734502
     23          6           0       -1.650889   -1.177610   -1.706426
     24          6           0       -2.443424    0.028449   -1.473737
 ---------------------------------------------------------------------
                    Distance matrix (angstroms):
                    1          2          3          4          5
     1  C    0.000000
     2  C    1.423061   0.000000
     3  C    2.464557   1.423248   0.000000
     4  C    2.845730   2.465073   1.423085   0.000000
     5  C    2.464904   2.846814   2.465087   1.423057   0.000000
     6  C    1.423788   2.465783   2.846444   2.464557   1.422751
     7  C    3.367193   3.864580   4.284176   4.263982   3.820399
     8  C    3.341276   3.367588   3.863903   4.283231   4.263821
     9  C    3.817517   3.340910   3.365888   3.861780   4.282049
    10  C    4.262879   3.819720   3.341880   3.366801   3.863747
    11  C    4.282744   4.264071   3.819649   3.341496   3.367014
    12  C    3.861877   4.282517   4.262210   3.817695   3.340704
    13  C    2.360256   1.531439   2.379952   3.494112   3.929351
    14  C    2.368268   2.414970   3.407844   4.143915   4.117753
    15  C    3.340348   2.367605   2.413821   3.406232   4.142751
    16  C    3.481420   2.361204   1.531863   2.380485   3.495404
    17  C    1.529626   2.378058   3.491951   3.926490   3.479572
    18  C    2.413964   3.407271   4.142740   4.115316   3.340842
    19  C    3.406483   4.143129   4.115646   3.340256   2.367355
    20  C    2.378967   3.493665   3.927798   3.479569   2.359528
    21  C    3.495664   3.931287   3.482785   2.361530   1.532423
    22  C    4.143164   4.117466   3.342238   2.368297   2.414523
    23  C    4.113748   3.339949   2.366871   2.413136   3.405770
    24  C    3.927946   3.481237   2.360731   1.531104   2.379255
                    6          7          8          9         10
     6  C    0.000000
     7  C    3.343168   0.000000
     8  C    3.820160   1.422917   0.000000
     9  C    4.262726   2.464640   1.423346   0.000000
    10  C    4.283794   2.846842   2.465301   1.422458   0.000000
    11  C    3.863621   2.465463   2.846669   2.464521   1.423773
    12  C    3.366328   1.423517   2.464460   2.844756   2.464329
    13  C    3.482004   3.406961   2.414228   2.366956   3.340822
    14  C    3.343341   2.381810   1.532679   2.361407   3.483000
    15  C    4.116372   3.495339   2.380872   1.531487   2.361047
    16  C    3.930355   4.144076   3.407642   2.413619   2.368361
    17  C    2.360214   2.413578   2.366423   3.338146   4.113563
    18  C    2.368227   1.531776   2.360930   3.480770   3.929378
    19  C    2.414104   2.362097   3.481892   3.928374   3.494599
    20  C    1.530785   2.367904   3.340136   4.113442   4.141377
    21  C    2.380992   3.343010   4.117342   4.142646   3.407776
    22  C    3.407228   3.483095   3.930752   3.494673   2.381340
    23  C    4.141502   3.928636   3.493527   2.377998   1.530786
    24  C    3.493430   4.115370   4.141907   3.404699   2.413476
                   11         12         13         14         15
    11  C    0.000000
    12  C    1.422261   0.000000
    13  C    4.115912   4.141408   0.000000
    14  C    3.931381   3.495628   1.461890   0.000000
    15  C    3.482128   3.928629   1.365117   2.301080   0.000000
    16  C    3.342208   4.115488   2.300300   3.383078   1.461626
    17  C    4.140606   3.404467   2.298266   1.365013   3.297755
    18  C    3.494134   2.379238   3.381918   2.302220   3.984742
    19  C    2.379522   1.531317   4.523378   3.986595   4.600867
    20  C    3.405210   2.412685   3.982927   3.300830   4.491853
    21  C    2.414386   2.367627   4.601996   4.496642   4.524892
    22  C    1.532050   2.360428   4.494274   4.603832   3.985757
    23  C    2.360498   3.479283   3.298380   3.984168   2.299165
    24  C    2.366813   3.338577   3.983424   4.524148   3.381157
                   16         17         18         19         20
    16  C    0.000000
    17  C    3.982123   0.000000
    18  C    4.524212   1.462474   0.000000
    19  C    4.493813   3.380811   2.300376   0.000000
    20  C    4.599811   2.299230   1.364894   1.461632   0.000000
    21  C    3.986346   3.983841   3.300692   1.365092   2.300128
    22  C    3.302067   4.522127   3.984653   2.299803   3.380702
    23  C    1.365109   4.488814   4.599014   3.982820   4.520344
    24  C    2.301006   4.596861   4.491565   3.298080   3.981332
                   21         22         23         24
    21  C    0.000000
    22  C    1.461805   0.000000
    23  C    3.381718   2.301073   0.000000
    24  C    2.299741   1.365098   1.461791   0.000000
 Stoichiometry    C24
 Framework group  C1[X(C24)]
 Deg. of freedom    66
 Full point group                 C1      NOp   1
 Largest Abelian subgroup         C1      NOp   1
 Largest concise Abelian subgroup C1      NOp   1
                         Standard orientation:                         
 ---------------------------------------------------------------------
 Center     Atomic      Atomic             Coordinates (Angstroms)
 Number     Number       Type             X           Y           Z
 ---------------------------------------------------------------------
      1          6           0        0.721296    1.225928    1.635878
      2          6           0        1.423613   -0.011753    1.636153
      3          6           0        0.702093   -1.238554    1.635486
      4          6           0       -0.720946   -1.227257    1.635129
      5          6           0       -1.423115    0.010504    1.636079
      6          6           0       -0.702447    1.237230    1.636965
      7          6           0       -0.048166    1.423585   -1.636254
      8          6           0        1.207532    0.754321   -1.636016
      9          6           0        1.255204   -0.668226   -1.635293
     10          6           0        0.048641   -1.421610   -1.636769
     11          6           0       -1.207889   -0.752088   -1.636369
     12          6           0       -1.255463    0.669377   -1.634713
     13          6           0        2.300211    0.000450    0.380473
     14          6           0        1.963497    1.202502   -0.380327
     15          6           0        2.021570   -1.097845   -0.380875
     16          6           0        1.151412   -1.992448    0.379954
     17          6           0        1.149119    1.989674    0.381519
     18          6           0       -0.060448    2.299709   -0.379833
     19          6           0       -2.021716    1.097563   -0.379944
     20          6           0       -1.150111    1.990171    0.381584
     21          6           0       -2.301784   -0.000868    0.380639
     22          6           0       -1.962839   -1.201486   -0.381272
     23          6           0        0.060329   -2.297718   -0.381538
     24          6           0       -1.149593   -1.991161    0.379345
 ---------------------------------------------------------------------
 Rotational constants (GHZ):      0.5418378      0.5415009      0.4797032
 Standard basis: 6-31G(d,p) (6D, 7F)
 There are   360 symmetry adapted cartesian basis functions of A   symmetry.
 There are   360 symmetry adapted basis functions of A   symmetry.
   360 basis functions,   672 primitive gaussians,   360 cartesian basis functions
    72 alpha electrons       72 beta electrons
       nuclear repulsion energy      1906.3598293758 Hartrees.
 NAtoms=   24 NActive=   24 NUniq=   24 SFac= 1.00D+00 NAtFMM=   60 NAOKFM=F Big=F
 Integral buffers will be    131072 words long.
 Raffenetti 2 integral format.
 Two-electron integral symmetry is turned on.
 One-electron integrals computed using PRISM.
 NBasis=   360 RedAO= T EigKep=  5.41D-04  NBF=   360
 NBsUse=   360 1.00D-06 EigRej= -1.00D+00 NBFU=   360
 Initial guess from the checkpoint file:  "/scratch/tmp/3419169/Gau-146785.chk"
 B after Tr=    -0.000000    0.000000    0.000000
         Rot=    0.983884    0.000055    0.000110   -0.178808 Ang=  20.60 deg.
 Requested convergence on RMS density matrix=1.00D-08 within  64 cycles.
 Requested convergence on MAX density matrix=1.00D-06.
 Requested convergence on             energy=1.00D-06.
 No special actions if energy rises.
 SCF Done:  E(RB3LYP) =  -913.839752323     A.U. after   11 cycles
            NFock= 11  Conv=0.68D-08     -V/T= 2.0090
 QCSCF skips out because SCF is already converged.
 Calling FoFJK, ICntrl=      2127 FMM=F ISym2X=0 I1Cent= 0 IOpClX= 0 NMat=1 NMatS=1 NMatT=0.
 ***** Axes restored to original set *****
 -------------------------------------------------------------------
 Center     Atomic                   Forces (Hartrees/Bohr)
 Number     Number              X              Y              Z
 -------------------------------------------------------------------
      1        6          -0.000514495    0.000277176   -0.000126947
      2        6          -0.000198552    0.000097358    0.000070768
      3        6           0.000199938    0.000028554   -0.000024976
      4        6          -0.000053122   -0.000122723    0.000016749
      5        6          -0.000226365    0.000088877   -0.000088162
      6        6           0.000168145   -0.000493855    0.000030402
      7        6          -0.000134156   -0.000002480    0.000021673
      8        6          -0.000434339   -0.000229217    0.000126167
      9        6           0.000391445   -0.000181419    0.000037332
     10        6          -0.000016478    0.000388210   -0.000225674
     11        6          -0.000181933   -0.000189695    0.000128368
     12        6           0.000411576    0.000171407   -0.000102595
     13        6           0.000201696   -0.000518433    0.000169455
     14        6          -0.000129219    0.000387725   -0.000282744
     15        6           0.000181453    0.000361947   -0.000187222
     16        6          -0.000031914    0.000214889    0.000248915
     17        6           0.000389279   -0.000003976    0.000186163
     18        6           0.000189553   -0.000163759    0.000166046
     19        6           0.000269290   -0.000354828    0.000058541
     20        6          -0.000037884    0.000428782   -0.000053618
     21        6          -0.000172580    0.000179126    0.000002262
     22        6          -0.000000698   -0.000302390   -0.000040606
     23        6          -0.000128640   -0.000418922   -0.000462607
     24        6          -0.000141999    0.000357645    0.000332309
 -------------------------------------------------------------------
 Cartesian Forces:  Max     0.000518433 RMS     0.000240091

 GradGradGradGradGradGradGradGradGradGradGradGradGradGradGradGradGradGrad
 Berny optimization.
 Using GEDIIS/GDIIS optimizer.
 FormGI is forming the generalized inverse of G from B-inverse, IUseBI=4.
 Internal  Forces:  Max     0.000302145 RMS     0.000063825
 Search for a local minimum.
 Step number   9 out of a maximum of  144
 All quantities printed in internal units (Hartrees-Bohrs-Radians)
 Mixed Optimization -- En-DIIS/RFO-DIIS
 Swapping is turned off.
 Update second derivatives using D2CorX and points    3    4    5    6    7
                                                      8    9
 DE=  5.16D-05 DEPred=-5.54D-06 R=-9.31D+00
 Trust test=-9.31D+00 RLast= 1.71D-02 DXMaxT set to 4.24D-01
 ITU= -1  1  0  1  1  1  1  1  0
     Eigenvalues ---    0.02307   0.02997   0.03702   0.04049   0.04351
     Eigenvalues ---    0.04491   0.04794   0.05105   0.05123   0.05397
     Eigenvalues ---    0.06163   0.06421   0.06677   0.06939   0.07099
     Eigenvalues ---    0.07519   0.08172   0.08206   0.08257   0.08439
     Eigenvalues ---    0.08475   0.08568   0.08631   0.09298   0.09612
     Eigenvalues ---    0.09675   0.10098   0.10279   0.11300   0.12332
     Eigenvalues ---    0.16141   0.16480   0.17383   0.17772   0.17925
     Eigenvalues ---    0.18039   0.18959   0.21771   0.22640   0.22791
     Eigenvalues ---    0.22950   0.26557   0.26734   0.28009   0.29222
     Eigenvalues ---    0.29599   0.31537   0.32143   0.32894   0.33437
     Eigenvalues ---    0.34802   0.35208   0.36194   0.36233   0.36839
     Eigenvalues ---    0.37371   0.37924   0.38826   0.39580   0.39755
     Eigenvalues ---    0.40775   0.41355   0.41976   0.42341   0.43351
     Eigenvalues ---    0.47280
 En-DIIS/RFO-DIIS IScMMF=        0 using points:     9    8    7    6    5
 RFO step:  Lambda=-2.68185320D-06.
 DidBck=F Rises=F RFO-DIIS coefs:    0.98242   -0.31333    0.28057   -0.18588    0.23622
 Iteration  1 RMS(Cart)=  0.00057873 RMS(Int)=  0.00000625
 Iteration  2 RMS(Cart)=  0.00000080 RMS(Int)=  0.00000618
 Variable       Old X    -DE/DX   Delta X   Delta X   Delta X     New X
                                 (Linear)    (Quad)   (Total)
    R1        2.68919   0.00000  -0.00041   0.00026  -0.00015   2.68905
    R2        2.69057  -0.00024  -0.00003  -0.00057  -0.00060   2.68996
    R3        2.89057   0.00030   0.00097   0.00042   0.00140   2.89197
    R4        2.68955  -0.00007  -0.00046   0.00001  -0.00044   2.68911
    R5        2.89400   0.00019   0.00230  -0.00015   0.00215   2.89615
    R6        2.68924   0.00000   0.00050  -0.00026   0.00024   2.68948
    R7        2.89480   0.00002  -0.00147   0.00020  -0.00127   2.89353
    R8        2.68919  -0.00001  -0.00026   0.00016  -0.00010   2.68909
    R9        2.89337  -0.00008  -0.00043  -0.00015  -0.00058   2.89279
   R10        2.68861   0.00008   0.00001   0.00020   0.00022   2.68883
   R11        2.89586   0.00001   0.00134  -0.00046   0.00088   2.89674
   R12        2.89277   0.00020  -0.00045   0.00062   0.00017   2.89293
   R13        2.68892   0.00001  -0.00094   0.00071  -0.00023   2.68870
   R14        2.69006  -0.00002  -0.00006  -0.00035  -0.00041   2.68965
   R15        2.89464   0.00003   0.00016   0.00024   0.00041   2.89504
   R16        2.68973  -0.00011  -0.00032  -0.00025  -0.00057   2.68916
   R17        2.89634  -0.00009   0.00068  -0.00066   0.00002   2.89636
   R18        2.68806   0.00022   0.00126   0.00005   0.00131   2.68937
   R19        2.89409  -0.00010  -0.00193  -0.00012  -0.00206   2.89203
   R20        2.69054  -0.00020  -0.00115  -0.00017  -0.00132   2.68922
   R21        2.89277   0.00011   0.00111   0.00037   0.00148   2.89425
   R22        2.68768   0.00018   0.00111   0.00000   0.00112   2.68880
   R23        2.89515   0.00008   0.00115  -0.00024   0.00092   2.89607
   R24        2.89377  -0.00002  -0.00166  -0.00000  -0.00166   2.89211
   R25        2.76257  -0.00001  -0.00040   0.00018  -0.00023   2.76234
   R26        2.57970   0.00006   0.00018   0.00014   0.00030   2.58000
   R27        2.57950  -0.00001   0.00016  -0.00003   0.00013   2.57963
   R28        2.76207   0.00009   0.00103  -0.00031   0.00070   2.76278
   R29        2.57968   0.00005  -0.00024   0.00021  -0.00004   2.57964
   R30        2.76368  -0.00012  -0.00024  -0.00021  -0.00045   2.76323
   R31        2.57928   0.00011  -0.00001   0.00037   0.00035   2.57963
   R32        2.76208  -0.00005   0.00134  -0.00087   0.00046   2.76255
   R33        2.57965   0.00020   0.00022   0.00017   0.00039   2.58004
   R34        2.76241   0.00005  -0.00036   0.00017  -0.00019   2.76222
   R35        2.57966  -0.00006   0.00003  -0.00010  -0.00007   2.57959
   R36        2.76239   0.00015   0.00049   0.00039   0.00088   2.76326
    A1        2.09487   0.00002   0.00002   0.00012   0.00014   2.09502
    A2        1.87170  -0.00003  -0.00020   0.00011  -0.00008   1.87162
    A3        1.85079  -0.00000   0.00008  -0.00023  -0.00016   1.85063
    A4        2.09381  -0.00001   0.00006  -0.00042  -0.00035   2.09345
    A5        1.84981   0.00001   0.00030   0.00020   0.00049   1.85030
    A6        1.87199  -0.00001   0.00116  -0.00054   0.00063   1.87262
    A7        2.09450   0.00002  -0.00016   0.00040   0.00024   2.09474
    A8        1.85032   0.00004  -0.00023   0.00039   0.00016   1.85048
    A9        1.87235  -0.00001  -0.00097   0.00043  -0.00055   1.87181
   A10        2.09475  -0.00004   0.00029  -0.00009   0.00020   2.09496
   A11        1.85063   0.00002   0.00034  -0.00037  -0.00003   1.85060
   A12        1.87168  -0.00001  -0.00005  -0.00010  -0.00015   1.87153
   A13        2.09442  -0.00003  -0.00048  -0.00028  -0.00076   2.09366
   A14        1.85034   0.00001  -0.00012   0.00021   0.00008   1.85043
   A15        1.87271  -0.00002   0.00054  -0.00052   0.00002   1.87273
   A16        2.09401   0.00003   0.00027   0.00026   0.00053   2.09454
   A17        1.87099   0.00003  -0.00007   0.00052   0.00044   1.87144
   A18        1.84986   0.00001   0.00029   0.00028   0.00057   1.85043
   A19        2.09352  -0.00002   0.00040  -0.00055  -0.00015   2.09337
   A20        1.85039  -0.00000  -0.00016  -0.00003  -0.00019   1.85019
   A21        1.87062   0.00006   0.00083  -0.00029   0.00054   1.87116
   A22        2.09398   0.00003   0.00052  -0.00017   0.00035   2.09433
   A23        1.87325  -0.00005   0.00042  -0.00054  -0.00012   1.87314
   A24        1.84972   0.00011   0.00079   0.00022   0.00102   1.85073
   A25        2.09547   0.00001  -0.00065   0.00061  -0.00003   2.09544
   A26        1.87291  -0.00007  -0.00157  -0.00005  -0.00161   1.87130
   A27        1.85119  -0.00001  -0.00028   0.00011  -0.00018   1.85101
   A28        2.09385  -0.00003   0.00014  -0.00051  -0.00037   2.09348
   A29        1.87109  -0.00003   0.00042  -0.00016   0.00027   1.87135
   A30        1.85005   0.00003  -0.00004   0.00023   0.00019   1.85024
   A31        2.09382   0.00001   0.00027   0.00003   0.00030   2.09413
   A32        1.87253   0.00000   0.00056  -0.00022   0.00034   1.87288
   A33        1.85015   0.00003   0.00014   0.00049   0.00063   1.85077
   A34        2.09573  -0.00000  -0.00069   0.00058  -0.00010   2.09563
   A35        1.85159  -0.00005  -0.00054   0.00011  -0.00043   1.85117
   A36        1.87251  -0.00003  -0.00100  -0.00027  -0.00126   1.87124
   A37        1.87698  -0.00002  -0.00092  -0.00045  -0.00135   1.87563
   A38        1.91139  -0.00002  -0.00235   0.00045  -0.00189   1.90949
   A39        1.90105  -0.00006  -0.00165  -0.00019  -0.00183   1.89922
   A40        1.87500  -0.00003   0.00011   0.00014   0.00024   1.87524
   A41        1.90882   0.00007  -0.00055   0.00097   0.00042   1.90924
   A42        1.89772   0.00007   0.00067   0.00069   0.00135   1.89908
   A43        1.91056   0.00007   0.00277   0.00001   0.00279   1.91335
   A44        1.87565   0.00006   0.00042   0.00007   0.00050   1.87615
   A45        1.90036  -0.00004   0.00090  -0.00016   0.00075   1.90111
   A46        1.87553   0.00002   0.00012  -0.00020  -0.00008   1.87545
   A47        1.91009   0.00006   0.00193  -0.00013   0.00180   1.91189
   A48        1.89899  -0.00000   0.00049   0.00005   0.00053   1.89952
   A49        1.91412  -0.00004  -0.00015  -0.00066  -0.00081   1.91331
   A50        1.87699   0.00000  -0.00047   0.00004  -0.00043   1.87656
   A51        1.90195  -0.00004   0.00006  -0.00051  -0.00045   1.90150
   A52        1.87457   0.00002   0.00016   0.00029   0.00045   1.87502
   A53        1.91162  -0.00006  -0.00047   0.00019  -0.00028   1.91134
   A54        1.89842  -0.00000   0.00022   0.00025   0.00046   1.89889
   A55        1.87474   0.00008   0.00089   0.00034   0.00124   1.87598
   A56        1.91156   0.00003   0.00192  -0.00002   0.00191   1.91347
   A57        1.90017  -0.00002   0.00083   0.00011   0.00096   1.90113
   A58        1.91301  -0.00004   0.00018  -0.00069  -0.00051   1.91250
   A59        1.87684  -0.00001  -0.00068  -0.00036  -0.00104   1.87579
   A60        1.90067  -0.00003  -0.00050  -0.00022  -0.00073   1.89994
   A61        1.91012   0.00002  -0.00138   0.00037  -0.00101   1.90911
   A62        1.87565  -0.00003  -0.00017  -0.00015  -0.00032   1.87533
   A63        1.89960  -0.00001  -0.00081   0.00017  -0.00063   1.89897
   A64        1.87583  -0.00001   0.00001  -0.00035  -0.00034   1.87550
   A65        1.90984   0.00007  -0.00070   0.00041  -0.00029   1.90955
   A66        1.89952  -0.00002  -0.00014   0.00014  -0.00001   1.89951
   A67        1.91296  -0.00002  -0.00115  -0.00012  -0.00127   1.91169
   A68        1.87598  -0.00002  -0.00042  -0.00025  -0.00067   1.87532
   A69        1.90106  -0.00010  -0.00129  -0.00037  -0.00166   1.89941
   A70        1.91258   0.00005   0.00048  -0.00005   0.00042   1.91300
   A71        1.87531   0.00005   0.00035   0.00048   0.00083   1.87614
   A72        1.90116  -0.00009   0.00033  -0.00023   0.00010   1.90125
    D1        0.00165  -0.00002  -0.00093   0.00012  -0.00080   0.00084
    D2        2.12093  -0.00004   0.00094  -0.00073   0.00022   2.12114
    D3       -2.10848  -0.00001  -0.00088   0.00026  -0.00062  -2.10911
    D4        0.01080  -0.00002   0.00099  -0.00059   0.00040   0.01120
    D5       -0.00182   0.00007   0.00069   0.00069   0.00138  -0.00044
    D6       -2.10949   0.00001   0.00017  -0.00031  -0.00014  -2.10964
    D7        2.11863   0.00004   0.00051   0.00073   0.00124   2.11987
    D8        0.01096  -0.00002  -0.00001  -0.00028  -0.00029   0.01067
    D9        0.09049   0.00007   0.00004   0.00089   0.00092   0.09141
   D10        2.15640   0.00000  -0.00024  -0.00007  -0.00031   2.15609
   D11       -2.16757   0.00006   0.00008   0.00081   0.00090  -2.16667
   D12       -0.10165  -0.00000  -0.00019  -0.00014  -0.00033  -0.10198
   D13       -0.00047  -0.00004   0.00092  -0.00103  -0.00011  -0.00059
   D14        2.12021  -0.00002  -0.00069   0.00015  -0.00055   2.11966
   D15       -2.10878  -0.00004  -0.00054  -0.00054  -0.00107  -2.10985
   D16        0.01190  -0.00002  -0.00215   0.00064  -0.00150   0.01040
   D17       -0.10115  -0.00003  -0.00165   0.00016  -0.00150  -0.10265
   D18       -2.16448   0.00007   0.00207   0.00040   0.00249  -2.16200
   D19        2.15516  -0.00004  -0.00065  -0.00056  -0.00122   2.15394
   D20        0.09183   0.00006   0.00307  -0.00032   0.00276   0.09459
   D21       -0.00052   0.00006  -0.00067   0.00112   0.00045  -0.00007
   D22        2.11970   0.00004  -0.00025   0.00061   0.00036   2.12005
   D23       -2.11032   0.00001   0.00058  -0.00005   0.00053  -2.10979
   D24        0.00989  -0.00001   0.00100  -0.00056   0.00044   0.01033
   D25       -0.10425  -0.00003   0.00063  -0.00075  -0.00012  -0.10437
   D26       -2.16359  -0.00007  -0.00108  -0.00062  -0.00169  -2.16528
   D27        2.15346   0.00001  -0.00031   0.00025  -0.00007   2.15339
   D28        0.09412  -0.00003  -0.00202   0.00038  -0.00164   0.09248
   D29        0.00034  -0.00002   0.00043  -0.00030   0.00013   0.00047
   D30        2.12146  -0.00006   0.00071  -0.00101  -0.00030   2.12116
   D31       -2.10948  -0.00001  -0.00019   0.00035   0.00016  -2.10932
   D32        0.01164  -0.00005   0.00010  -0.00037  -0.00027   0.01137
   D33       -2.16625   0.00010  -0.00056   0.00059   0.00002  -2.16622
   D34       -0.10309   0.00005   0.00029   0.00056   0.00085  -0.10224
   D35        0.09155   0.00006  -0.00003   0.00018   0.00015   0.09171
   D36        2.15471   0.00001   0.00082   0.00016   0.00098   2.15569
   D37        0.00083  -0.00005  -0.00044  -0.00061  -0.00105  -0.00022
   D38        2.11896   0.00002  -0.00011   0.00051   0.00040   2.11936
   D39       -2.10924  -0.00002  -0.00039  -0.00025  -0.00064  -2.10988
   D40        0.00888   0.00005  -0.00006   0.00087   0.00081   0.00969
   D41       -2.16368   0.00005   0.00167   0.00013   0.00180  -2.16188
   D42       -0.10352   0.00003  -0.00013   0.00045   0.00032  -0.10321
   D43        0.09417   0.00001   0.00134  -0.00040   0.00094   0.09510
   D44        2.15432  -0.00001  -0.00046  -0.00008  -0.00054   2.15377
   D45        0.09076   0.00002   0.00024   0.00061   0.00084   0.09160
   D46        2.15444  -0.00004  -0.00065  -0.00025  -0.00090   2.15354
   D47       -2.16522  -0.00004  -0.00023  -0.00022  -0.00044  -2.16566
   D48       -0.10153  -0.00009  -0.00111  -0.00107  -0.00219  -0.10372
   D49        0.00086   0.00006   0.00024   0.00045   0.00068   0.00154
   D50       -2.10853  -0.00007  -0.00157   0.00073  -0.00084  -2.10937
   D51        2.11858   0.00012   0.00149  -0.00035   0.00115   2.11973
   D52        0.00920  -0.00001  -0.00032  -0.00006  -0.00038   0.00882
   D53       -0.00279   0.00006   0.00130  -0.00034   0.00097  -0.00182
   D54        2.12004  -0.00003  -0.00096  -0.00021  -0.00117   2.11887
   D55       -2.11050   0.00003   0.00053   0.00034   0.00087  -2.10963
   D56        0.01233  -0.00006  -0.00174   0.00047  -0.00127   0.01106
   D57       -0.10387  -0.00000   0.00004   0.00057   0.00062  -0.10326
   D58       -2.16283   0.00002  -0.00005   0.00000  -0.00004  -2.16287
   D59        2.15160   0.00001   0.00095  -0.00030   0.00065   2.15224
   D60        0.09265   0.00003   0.00086  -0.00087  -0.00001   0.09264
   D61        0.00159  -0.00011  -0.00154  -0.00001  -0.00155   0.00004
   D62       -2.11055  -0.00004   0.00063  -0.00054   0.00010  -2.11045
   D63        2.12261  -0.00006   0.00007  -0.00066  -0.00060   2.12201
   D64        0.01047   0.00001   0.00224  -0.00120   0.00105   0.01152
   D65        2.15309   0.00011   0.00104   0.00092   0.00195   2.15504
   D66        0.09625   0.00001   0.00048  -0.00050  -0.00002   0.09622
   D67       -0.10416   0.00004  -0.00037   0.00132   0.00095  -0.10321
   D68       -2.16101  -0.00006  -0.00093  -0.00010  -0.00103  -2.16203
   D69       -0.00211   0.00004   0.00130  -0.00054   0.00077  -0.00134
   D70       -2.11000   0.00005   0.00089  -0.00036   0.00055  -2.10946
   D71        2.12074  -0.00006  -0.00149  -0.00009  -0.00158   2.11916
   D72        0.01284  -0.00005  -0.00189   0.00009  -0.00180   0.01104
   D73        0.09430  -0.00005  -0.00355   0.00069  -0.00285   0.09145
   D74        2.15560  -0.00003  -0.00067   0.00054  -0.00014   2.15546
   D75       -2.16550  -0.00002  -0.00161  -0.00009  -0.00169  -2.16718
   D76       -0.10420   0.00001   0.00127  -0.00024   0.00102  -0.10317
   D77        0.00018   0.00007   0.00024   0.00065   0.00089   0.00106
   D78       -2.10906   0.00002  -0.00063   0.00015  -0.00047  -2.10953
   D79        2.11848   0.00004   0.00087   0.00028   0.00115   2.11963
   D80        0.00924  -0.00001   0.00001  -0.00022  -0.00021   0.00903
   D81        0.09014   0.00008   0.00199   0.00008   0.00207   0.09221
   D82        2.15378  -0.00006  -0.00040  -0.00058  -0.00098   2.15280
   D83       -2.16582   0.00011   0.00158   0.00065   0.00223  -2.16359
   D84       -0.10217  -0.00003  -0.00082  -0.00000  -0.00082  -0.10299
   D85        0.00227  -0.00012  -0.00154  -0.00021  -0.00175   0.00052
   D86       -2.11026  -0.00003   0.00052  -0.00053  -0.00001  -2.11027
   D87        2.12258  -0.00009  -0.00048  -0.00007  -0.00055   2.12203
   D88        0.01005   0.00000   0.00158  -0.00039   0.00119   0.01124
   D89        2.15427   0.00006   0.00034   0.00062   0.00096   2.15522
   D90        0.09426   0.00005   0.00088   0.00043   0.00131   0.09557
   D91       -0.10262   0.00002  -0.00044   0.00041  -0.00003  -0.10265
   D92       -2.16262   0.00002   0.00011   0.00021   0.00032  -2.16230
   D93       -0.10566   0.00006   0.00207  -0.00002   0.00204  -0.10362
   D94       -2.16676   0.00001  -0.00052  -0.00034  -0.00085  -2.16761
   D95        2.15446   0.00000   0.00027   0.00058   0.00085   2.15531
   D96        0.09336  -0.00004  -0.00231   0.00027  -0.00204   0.09132
   D97       -1.90315  -0.00002   0.00198  -0.00112   0.00087  -1.90228
   D98        0.16088   0.00008   0.00175   0.00048   0.00224   0.16312
   D99        0.16684  -0.00009  -0.00218  -0.00094  -0.00313   0.16372
   D100       2.23088   0.00002  -0.00241   0.00066  -0.00176   2.22911
   D101       1.88668   0.00002   0.00004  -0.00019  -0.00019   1.88649
   D102      -0.15914  -0.00007  -0.00262  -0.00019  -0.00282  -0.16196
   D103      -0.16161   0.00008   0.00335   0.00021   0.00355  -0.15806
   D104      -2.20743  -0.00000   0.00070   0.00021   0.00093  -2.20650
   D105       1.88701  -0.00005  -0.00104   0.00026  -0.00078   1.88624
   D106      -0.16337  -0.00001  -0.00042   0.00089   0.00046  -0.16290
   D107      -0.15554  -0.00010  -0.00124  -0.00083  -0.00207  -0.15761
   D108      -2.20592  -0.00005  -0.00062  -0.00021  -0.00083  -2.20675
   D109      -1.90263  -0.00003  -0.00251   0.00055  -0.00196  -1.90459
   D110       0.16388   0.00005   0.00012   0.00030   0.00042   0.16431
   D111       0.16526   0.00006   0.00154   0.00051   0.00205   0.16730
   D112       2.23177   0.00014   0.00417   0.00027   0.00443   2.23620
   D113       1.88731  -0.00001   0.00040  -0.00053  -0.00014   1.88717
   D114      -0.16068   0.00008   0.00228   0.00006   0.00234  -0.15834
   D115      -0.15731  -0.00007  -0.00113  -0.00024  -0.00137  -0.15868
   D116      -2.20530   0.00002   0.00075   0.00035   0.00111  -2.20419
   D117      -1.90579   0.00007   0.00070   0.00005   0.00075  -1.90504
   D118       0.16170   0.00001   0.00034   0.00058   0.00092   0.16262
   D119       0.16795  -0.00000   0.00029  -0.00099  -0.00070   0.16725
   D120       2.23545  -0.00006  -0.00007  -0.00047  -0.00053   2.23491
   D121       1.88788  -0.00003  -0.00037  -0.00010  -0.00047   1.88741
   D122      -0.16094   0.00001   0.00063   0.00087   0.00150  -0.15944
   D123      -0.15613  -0.00002  -0.00042  -0.00070  -0.00111  -0.15725
   D124      -2.20495   0.00002   0.00058   0.00027   0.00085  -2.20410
   D125      -1.90443   0.00003  -0.00112   0.00058  -0.00053  -1.90496
   D126       0.16721  -0.00004  -0.00156  -0.00057  -0.00212   0.16509
   D127       0.16404   0.00010   0.00214   0.00082   0.00295   0.16699
   D128       2.23568   0.00004   0.00170  -0.00034   0.00136   2.23704
   D129       1.88564   0.00002   0.00058   0.00010   0.00066   1.88630
   D130      -0.15950   0.00005   0.00201  -0.00003   0.00197  -0.15752
   D131      -0.15955  -0.00008  -0.00210  -0.00036  -0.00246  -0.16201
   D132      -2.20468  -0.00005  -0.00067  -0.00049  -0.00115  -2.20584
   D133      -1.90248  -0.00006   0.00098  -0.00071   0.00027  -1.90221
   D134       0.16419   0.00000   0.00007  -0.00033  -0.00026   0.16393
   D135       0.16447  -0.00005  -0.00119  -0.00025  -0.00145   0.16302
   D136       2.23115   0.00001  -0.00209   0.00012  -0.00198   2.22917
   D137       1.88681  -0.00003  -0.00055  -0.00001  -0.00055   1.88626
   D138      -0.16020  -0.00006  -0.00143  -0.00042  -0.00186  -0.16205
   D139      -0.15834  -0.00004  -0.00008   0.00010   0.00002  -0.15832
   D140      -2.20535  -0.00008  -0.00096  -0.00032  -0.00129  -2.20663
   D141      -1.90567   0.00001   0.00051   0.00014   0.00066  -1.90502
   D142       0.16485   0.00005   0.00146   0.00022   0.00168   0.16654
   D143       0.16565  -0.00008  -0.00178  -0.00035  -0.00213   0.16352
   D144       2.23617  -0.00004  -0.00084  -0.00026  -0.00111   2.23507
         Item               Value     Threshold  Converged?
 Maximum Force            0.000302     0.000450     YES
 RMS     Force            0.000064     0.000300     YES
 Maximum Displacement     0.003680     0.001800     NO 
 RMS     Displacement     0.000579     0.001200     YES
 Predicted change in Energy=-2.796279D-06
 GradGradGradGradGradGradGradGradGradGradGradGradGradGradGradGradGradGrad

                          Input orientation:                          
 ---------------------------------------------------------------------
 Center     Atomic      Atomic             Coordinates (Angstroms)
 Number     Number       Type             X           Y           Z
 ---------------------------------------------------------------------
      1          6           0       -1.045112   -0.026809    2.196315
      2          6           0       -1.514041   -1.245167    1.630111
      3          6           0       -2.418791   -1.216327    0.532125
      4          6           0       -2.854765    0.030141    0.001297
      5          6           0       -2.386428    1.248495    0.568058
      6          6           0       -1.481387    1.219901    1.665618
      7          6           0        1.350059    0.736657   -0.044027
      8          6           0        1.367670   -0.685810   -0.018988
      9          6           0        0.592929   -1.423526   -0.957395
     10          6           0       -0.199845   -0.739773   -1.921428
     11          6           0       -0.218759    0.682968   -1.945522
     12          6           0        0.555678    1.420418   -1.006944
     13          6           0       -0.265446   -2.006518    1.171700
     14          6           0        0.883181   -1.123876    1.367554
     15          6           0       -0.374764   -2.298633   -0.157474
     16          6           0       -1.729386   -1.977277   -0.603755
     17          6           0        0.480372   -0.027578    2.074180
     18          6           0        0.863796    1.177586    1.340216
     19          6           0       -0.412852    2.298028   -0.210711
     20          6           0       -0.233798    1.977760    1.204370
     21          6           0       -1.697261    2.007766   -0.571373
     22          6           0       -1.671480    1.123270   -1.734806
     23          6           0       -1.651730   -1.177991   -1.707647
     24          6           0       -2.443897    0.028557   -1.473332
 ---------------------------------------------------------------------
                    Distance matrix (angstroms):
                    1          2          3          4          5
     1  C    0.000000
     2  C    1.422982   0.000000
     3  C    2.464036   1.423017   0.000000
     4  C    2.845380   2.465154   1.423213   0.000000
     5  C    2.465106   2.847343   2.465296   1.423005   0.000000
     6  C    1.423468   2.465540   2.845829   2.464074   1.422868
     7  C    3.367322   3.864380   4.283729   4.264008   3.820728
     8  C    3.341163   3.366997   3.862960   4.282751   4.263732
     9  C    3.818362   3.341605   3.366313   3.862490   4.282904
    10  C    4.263637   3.820466   3.342267   3.367231   3.864181
    11  C    4.282693   4.263873   3.819189   3.341380   3.367001
    12  C    3.862365   4.282889   4.262467   3.818448   3.341583
    13  C    2.361560   1.532575   2.381250   3.496055   3.931674
    14  C    2.368273   2.414606   3.407273   4.143749   4.117971
    15  C    3.339293   2.367109   2.413500   3.405702   4.141896
    16  C    3.480367   2.360618   1.531192   2.379558   3.494346
    17  C    1.530366   2.378530   3.492307   3.927253   3.480705
    18  C    2.414001   3.407034   4.142367   4.115462   3.341439
    19  C    3.405641   4.141917   4.114157   3.339341   2.367066
    20  C    2.379177   3.493928   3.927887   3.479952   2.360198
    21  C    3.496411   3.932133   3.483258   2.361941   1.532888
    22  C    4.143516   4.117881   3.342329   2.368364   2.414542
    23  C    4.115110   3.341272   2.367791   2.413994   3.406824
    24  C    3.927591   3.481143   2.360556   1.530799   2.378828
                    6          7          8          9         10
     6  C    0.000000
     7  C    3.342678   0.000000
     8  C    3.819262   1.422797   0.000000
     9  C    4.262709   2.464525   1.423045   0.000000
    10  C    4.283640   2.847224   2.465622   1.423153   0.000000
    11  C    3.863011   2.465716   2.846373   2.464254   1.423071
    12  C    3.366367   1.423299   2.464059   2.844619   2.464451
    13  C    3.483138   3.407765   2.414348   2.368487   3.343110
    14  C    3.342651   2.381622   1.532688   2.362081   3.483947
    15  C    4.114409   3.492975   2.378329   1.530397   2.360545
    16  C    3.928551   4.142671   3.406112   2.413472   2.367947
    17  C    2.360429   2.413962   2.366838   3.339429   4.115191
    18  C    2.368029   1.531991   2.360841   3.481116   3.930129
    19  C    2.413448   2.360830   3.479987   3.926716   3.492873
    20  C    1.530874   2.368002   3.340047   4.114055   4.142070
    21  C    2.381482   3.343647   4.117558   4.143398   3.407914
    22  C    3.407104   3.483949   3.931060   3.495437   2.381484
    23  C    4.142200   3.929918   3.494365   2.379424   1.531571
    24  C    3.492668   4.115632   4.141676   3.405444   2.413896
                   11         12         13         14         15
    11  C    0.000000
    12  C    1.422853   0.000000
    13  C    4.117352   4.143021   0.000000
    14  C    3.931340   3.495559   1.461766   0.000000
    15  C    3.480143   3.926660   1.365278   2.299607   0.000000
    16  C    3.340545   4.114415   2.301351   3.382287   1.461998
    17  C    4.141457   3.405245   2.299330   1.365080   3.296851
    18  C    3.494659   2.379720   3.382618   2.301706   3.982612
    19  C    2.378163   1.530437   4.523484   3.984979   4.597127
    20  C    3.405661   2.413257   3.984538   3.300670   4.490214
    21  C    2.414404   2.368636   4.604658   4.497255   4.523868
    22  C    1.532536   2.361845   4.496696   4.604411   3.984829
    23  C    2.360755   3.480714   3.301345   3.985670   2.299895
    24  C    2.366952   3.339498   3.985395   4.524178   3.380622
                   16         17         18         19         20
    16  C    0.000000
    17  C    3.981921   0.000000
    18  C    4.522917   1.462237   0.000000
    19  C    4.490655   3.380388   2.300130   0.000000
    20  C    4.598741   2.299563   1.365081   1.461877   0.000000
    21  C    3.985304   3.985431   3.301876   1.365297   2.301279
    22  C    3.300912   4.523637   3.985767   2.299362   3.381691
    23  C    1.365088   4.491272   4.600661   3.982254   4.522072
    24  C    2.300013   4.597754   4.491899   3.296946   3.981710
                   21         22         23         24
    21  C    0.000000
    22  C    1.461703   0.000000
    23  C    3.382638   2.301506   0.000000
    24  C    2.299623   1.365062   1.462256   0.000000
 Stoichiometry    C24
 Framework group  C1[X(C24)]
 Deg. of freedom    66
 Full point group                 C1      NOp   1
 Largest Abelian subgroup         C1      NOp   1
 Largest concise Abelian subgroup C1      NOp   1
                         Standard orientation:                         
 ---------------------------------------------------------------------
 Center     Atomic      Atomic             Coordinates (Angstroms)
 Number     Number       Type             X           Y           Z
 ---------------------------------------------------------------------
      1          6           0        1.111691    0.887671    1.635821
      2          6           0        1.325640   -0.519135    1.636256
      3          6           0        0.213420   -1.406797    1.635879
      4          6           0       -1.111790   -0.887807    1.635791
      5          6           0       -1.325696    0.519029    1.636167
      6          6           0       -0.213744    1.406789    1.636048
      7          6           0        0.463896    1.346036   -1.636658
      8          6           0        1.397032    0.271975   -1.635703
      9          6           0        0.933267   -1.073379   -1.635621
     10          6           0       -0.463550   -1.345902   -1.636544
     11          6           0       -1.396937   -0.271695   -1.635893
     12          6           0       -0.933049    1.073415   -1.635631
     13          6           0        2.150469   -0.821753    0.380523
     14          6           0        2.263472    0.421302   -0.380268
     15          6           0        1.494909   -1.746070   -0.380966
     16          6           0        0.362657   -2.270872    0.380629
     17          6           0        1.785013    1.448348    0.381111
     18          6           0        0.765986    2.169268   -0.380462
     19          6           0       -1.494871    1.746035   -0.380969
     20          6           0       -0.362628    2.270315    0.380766
     21          6           0       -2.150866    0.821838    0.380322
     22          6           0       -2.263211   -0.421157   -0.380546
     23          6           0       -0.765782   -2.168908   -0.380748
     24          6           0       -1.785328   -1.448547    0.380696
 ---------------------------------------------------------------------
 Rotational constants (GHZ):      0.5418415      0.5414270      0.4796863
 Standard basis: 6-31G(d,p) (6D, 7F)
 There are   360 symmetry adapted cartesian basis functions of A   symmetry.
 There are   360 symmetry adapted basis functions of A   symmetry.
   360 basis functions,   672 primitive gaussians,   360 cartesian basis functions
    72 alpha electrons       72 beta electrons
       nuclear repulsion energy      1906.3050633329 Hartrees.
 NAtoms=   24 NActive=   24 NUniq=   24 SFac= 1.00D+00 NAtFMM=   60 NAOKFM=F Big=F
 Integral buffers will be    131072 words long.
 Raffenetti 2 integral format.
 Two-electron integral symmetry is turned on.
 One-electron integrals computed using PRISM.
 NBasis=   360 RedAO= T EigKep=  5.42D-04  NBF=   360
 NBsUse=   360 1.00D-06 EigRej= -1.00D+00 NBFU=   360
 Initial guess from the checkpoint file:  "/scratch/tmp/3419169/Gau-146785.chk"
 B after Tr=     0.000000   -0.000000    0.000000
         Rot=    0.983349    0.000201   -0.000008    0.181725 Ang=  20.94 deg.
 Requested convergence on RMS density matrix=1.00D-08 within  64 cycles.
 Requested convergence on MAX density matrix=1.00D-06.
 Requested convergence on             energy=1.00D-06.
 No special actions if energy rises.
 SCF Done:  E(RB3LYP) =  -913.839796948     A.U. after   12 cycles
            NFock= 12  Conv=0.77D-08     -V/T= 2.0090
 QCSCF skips out because SCF is already converged.
 Calling FoFJK, ICntrl=      2127 FMM=F ISym2X=0 I1Cent= 0 IOpClX= 0 NMat=1 NMatS=1 NMatT=0.
 ***** Axes restored to original set *****
 -------------------------------------------------------------------
 Center     Atomic                   Forces (Hartrees/Bohr)
 Number     Number              X              Y              Z
 -------------------------------------------------------------------
      1        6          -0.000146426    0.000152930   -0.000109769
      2        6          -0.000061097   -0.000000893   -0.000019045
      3        6           0.000022088   -0.000127847   -0.000023449
      4        6           0.000081839   -0.000079397   -0.000006087
      5        6          -0.000006992    0.000073344   -0.000026931
      6        6           0.000036513   -0.000037231    0.000055870
      7        6          -0.000048243    0.000036477    0.000092336
      8        6          -0.000110903   -0.000001666    0.000217854
      9        6           0.000397665   -0.000102777    0.000229386
     10        6           0.000003191    0.000091695   -0.000038930
     11        6          -0.000214688   -0.000143111    0.000052338
     12        6          -0.000119872    0.000136734   -0.000407218
     13        6           0.000117155    0.000081532    0.000060283
     14        6          -0.000121595    0.000117867   -0.000497202
     15        6          -0.000074346   -0.000279867    0.000073267
     16        6          -0.000009529    0.000326822    0.000184198
     17        6           0.000367216   -0.000135551    0.000203903
     18        6          -0.000028791    0.000169521    0.000038211
     19        6          -0.000076301    0.000274627    0.000003893
     20        6          -0.000086234   -0.000207067    0.000014983
     21        6          -0.000055425   -0.000155953   -0.000014100
     22        6           0.000411919   -0.000091616    0.000150919
     23        6          -0.000150846   -0.000222948   -0.000017979
     24        6          -0.000126297    0.000124376   -0.000216732
 -------------------------------------------------------------------
 Cartesian Forces:  Max     0.000497202 RMS     0.000164231

 GradGradGradGradGradGradGradGradGradGradGradGradGradGradGradGradGradGrad
 Berny optimization.
 Using GEDIIS/GDIIS optimizer.
 FormGI is forming the generalized inverse of G from B-inverse, IUseBI=4.
 Internal  Forces:  Max     0.000206616 RMS     0.000044612
 Search for a local minimum.
 Step number  10 out of a maximum of  144
 All quantities printed in internal units (Hartrees-Bohrs-Radians)
 Mixed Optimization -- En-DIIS/RFO-DIIS
 Swapping is turned off.
 Update second derivatives using D2CorX and points    3    4    5    6    7
                                                      8    9   10
 DE= -4.46D-05 DEPred=-2.80D-06 R= 1.60D+01
 TightC=F SS=  1.41D+00  RLast= 1.82D-02 DXNew= 7.1352D-01 5.4501D-02
 Trust test= 1.60D+01 RLast= 1.82D-02 DXMaxT set to 4.24D-01
 ITU=  1 -1  1  0  1  1  1  1  1  0
     Eigenvalues ---    0.02257   0.02556   0.03709   0.03815   0.04051
     Eigenvalues ---    0.04370   0.04563   0.05100   0.05113   0.05446
     Eigenvalues ---    0.05891   0.06189   0.06516   0.06933   0.07102
     Eigenvalues ---    0.07532   0.08150   0.08205   0.08287   0.08458
     Eigenvalues ---    0.08504   0.08581   0.08695   0.09303   0.09575
     Eigenvalues ---    0.09696   0.10039   0.11040   0.11450   0.12336
     Eigenvalues ---    0.16214   0.16652   0.17384   0.17772   0.17958
     Eigenvalues ---    0.18046   0.18952   0.21345   0.22521   0.23014
     Eigenvalues ---    0.23420   0.26624   0.26731   0.28254   0.29245
     Eigenvalues ---    0.29849   0.31282   0.32208   0.33043   0.34197
     Eigenvalues ---    0.35185   0.35535   0.36061   0.36528   0.37186
     Eigenvalues ---    0.37877   0.38303   0.39034   0.39753   0.40069
     Eigenvalues ---    0.41163   0.41577   0.42223   0.43744   0.45602
     Eigenvalues ---    0.49359
 En-DIIS/RFO-DIIS IScMMF=        0 using points:    10    9    8    7    6
 RFO step:  Lambda=-1.49978583D-06.
 DidBck=T Rises=F RFO-DIIS coefs:    0.74653    0.61214   -0.58799    0.08756    0.14176
 Iteration  1 RMS(Cart)=  0.00016132 RMS(Int)=  0.00000316
 Iteration  2 RMS(Cart)=  0.00000007 RMS(Int)=  0.00000316
 Variable       Old X    -DE/DX   Delta X   Delta X   Delta X     New X
                                 (Linear)    (Quad)   (Total)
    R1        2.68905   0.00000  -0.00004   0.00005   0.00001   2.68906
    R2        2.68996  -0.00007  -0.00006  -0.00030  -0.00036   2.68961
    R3        2.89197   0.00014   0.00033   0.00045   0.00078   2.89275
    R4        2.68911  -0.00002  -0.00016   0.00007  -0.00009   2.68902
    R5        2.89615   0.00004   0.00053  -0.00017   0.00036   2.89650
    R6        2.68948   0.00001   0.00006  -0.00008  -0.00002   2.68946
    R7        2.89353  -0.00012  -0.00052   0.00000  -0.00051   2.89302
    R8        2.68909   0.00001   0.00001   0.00001   0.00003   2.68912
    R9        2.89279   0.00002  -0.00006   0.00014   0.00009   2.89288
   R10        2.68883   0.00003  -0.00003   0.00014   0.00012   2.68895
   R11        2.89674  -0.00003   0.00029  -0.00039  -0.00009   2.89664
   R12        2.89293  -0.00005  -0.00025   0.00022  -0.00003   2.89291
   R13        2.68870   0.00010  -0.00003   0.00012   0.00009   2.68879
   R14        2.68965   0.00015   0.00023  -0.00012   0.00011   2.68976
   R15        2.89504  -0.00001   0.00013  -0.00005   0.00008   2.89513
   R16        2.68916  -0.00009  -0.00010  -0.00011  -0.00020   2.68896
   R17        2.89636  -0.00021  -0.00025  -0.00055  -0.00080   2.89556
   R18        2.68937   0.00016   0.00045  -0.00001   0.00045   2.68982
   R19        2.89203   0.00007  -0.00016   0.00020   0.00004   2.89207
   R20        2.68922   0.00001  -0.00015  -0.00014  -0.00028   2.68893
   R21        2.89425   0.00007   0.00035   0.00017   0.00052   2.89477
   R22        2.68880  -0.00005   0.00017  -0.00002   0.00016   2.68896
   R23        2.89607  -0.00016  -0.00021  -0.00035  -0.00056   2.89552
   R24        2.89211   0.00005  -0.00012   0.00019   0.00006   2.89217
   R25        2.76234   0.00001  -0.00018   0.00011  -0.00007   2.76227
   R26        2.58000  -0.00009   0.00013  -0.00017  -0.00005   2.57995
   R27        2.57963  -0.00000  -0.00001   0.00001   0.00001   2.57963
   R28        2.76278   0.00008   0.00025  -0.00012   0.00012   2.76290
   R29        2.57964  -0.00001  -0.00011   0.00009  -0.00002   2.57963
   R30        2.76323   0.00002   0.00020  -0.00015   0.00005   2.76327
   R31        2.57963  -0.00002  -0.00006   0.00012   0.00006   2.57969
   R32        2.76255   0.00010   0.00034  -0.00019   0.00015   2.76270
   R33        2.58004  -0.00008   0.00012  -0.00018  -0.00006   2.57997
   R34        2.76222   0.00004  -0.00014   0.00014  -0.00000   2.76222
   R35        2.57959  -0.00000  -0.00006   0.00001  -0.00005   2.57955
   R36        2.76326   0.00001   0.00035  -0.00008   0.00027   2.76353
    A1        2.09502   0.00003  -0.00000  -0.00000  -0.00001   2.09501
    A2        1.87162  -0.00001  -0.00004   0.00015   0.00011   1.87173
    A3        1.85063   0.00001   0.00015  -0.00002   0.00013   1.85076
    A4        2.09345   0.00001  -0.00011   0.00009  -0.00002   2.09343
    A5        1.85030  -0.00000   0.00005  -0.00002   0.00002   1.85033
    A6        1.87262   0.00000   0.00018  -0.00011   0.00007   1.87269
    A7        2.09474  -0.00003   0.00012  -0.00007   0.00005   2.09479
    A8        1.85048   0.00001  -0.00004   0.00002  -0.00002   1.85046
    A9        1.87181   0.00000  -0.00019  -0.00004  -0.00023   1.87157
   A10        2.09496   0.00001   0.00003  -0.00005  -0.00003   2.09493
   A11        1.85060   0.00001   0.00020  -0.00006   0.00015   1.85075
   A12        1.87153   0.00001  -0.00004   0.00016   0.00011   1.87164
   A13        2.09366  -0.00000  -0.00022   0.00009  -0.00012   2.09353
   A14        1.85043  -0.00001  -0.00001  -0.00006  -0.00007   1.85035
   A15        1.87273   0.00001   0.00005  -0.00009  -0.00003   1.87269
   A16        2.09454  -0.00002   0.00018  -0.00005   0.00013   2.09468
   A17        1.87144   0.00002   0.00000   0.00004   0.00004   1.87148
   A18        1.85043  -0.00001   0.00006  -0.00002   0.00004   1.85047
   A19        2.09337   0.00000  -0.00005   0.00014   0.00008   2.09345
   A20        1.85019  -0.00002  -0.00009   0.00004  -0.00005   1.85014
   A21        1.87116   0.00004   0.00039   0.00004   0.00043   1.87159
   A22        2.09433   0.00001   0.00053  -0.00026   0.00027   2.09460
   A23        1.87314   0.00003   0.00021  -0.00025  -0.00004   1.87310
   A24        1.85073  -0.00002   0.00005  -0.00002   0.00003   1.85076
   A25        2.09544  -0.00002  -0.00044   0.00012  -0.00032   2.09512
   A26        1.87130   0.00004  -0.00015   0.00001  -0.00014   1.87116
   A27        1.85101  -0.00005  -0.00025  -0.00003  -0.00028   1.85073
   A28        2.09348   0.00002  -0.00009   0.00011   0.00002   2.09351
   A29        1.87135   0.00001   0.00021   0.00008   0.00029   1.87164
   A30        1.85024  -0.00002  -0.00004  -0.00001  -0.00005   1.85019
   A31        2.09413   0.00002   0.00051  -0.00017   0.00034   2.09446
   A32        1.87288   0.00004   0.00022  -0.00008   0.00014   1.87301
   A33        1.85077  -0.00005  -0.00016   0.00011  -0.00005   1.85072
   A34        2.09563  -0.00003  -0.00046   0.00006  -0.00039   2.09523
   A35        1.85117  -0.00007  -0.00037  -0.00002  -0.00039   1.85077
   A36        1.87124   0.00006   0.00003  -0.00009  -0.00006   1.87119
   A37        1.87563   0.00002  -0.00024  -0.00004  -0.00027   1.87536
   A38        1.90949  -0.00000  -0.00035   0.00015  -0.00020   1.90929
   A39        1.89922  -0.00001  -0.00028  -0.00012  -0.00039   1.89883
   A40        1.87524   0.00006   0.00019   0.00023   0.00042   1.87566
   A41        1.90924   0.00002  -0.00007   0.00053   0.00046   1.90970
   A42        1.89908   0.00000   0.00025   0.00024   0.00049   1.89957
   A43        1.91335  -0.00007   0.00025  -0.00005   0.00020   1.91355
   A44        1.87615   0.00002   0.00010  -0.00006   0.00005   1.87620
   A45        1.90111  -0.00001  -0.00004  -0.00000  -0.00004   1.90107
   A46        1.87545   0.00002   0.00022  -0.00001   0.00021   1.87566
   A47        1.91189   0.00003   0.00043   0.00017   0.00060   1.91249
   A48        1.89952   0.00002   0.00018   0.00017   0.00035   1.89987
   A49        1.91331  -0.00002  -0.00015  -0.00042  -0.00056   1.91274
   A50        1.87656  -0.00007  -0.00034  -0.00003  -0.00037   1.87619
   A51        1.90150   0.00002   0.00008  -0.00034  -0.00027   1.90123
   A52        1.87502  -0.00004  -0.00010   0.00013   0.00003   1.87505
   A53        1.91134  -0.00000  -0.00029  -0.00002  -0.00030   1.91104
   A54        1.89889   0.00002   0.00016  -0.00002   0.00014   1.89903
   A55        1.87598   0.00001   0.00020   0.00001   0.00022   1.87620
   A56        1.91347  -0.00006   0.00006  -0.00003   0.00003   1.91350
   A57        1.90113  -0.00001  -0.00005   0.00007   0.00002   1.90115
   A58        1.91250   0.00002   0.00006  -0.00003   0.00004   1.91254
   A59        1.87579  -0.00000   0.00004  -0.00013  -0.00009   1.87571
   A60        1.89994   0.00001   0.00003   0.00002   0.00005   1.89999
   A61        1.90911   0.00002  -0.00013   0.00018   0.00006   1.90917
   A62        1.87533   0.00001  -0.00011   0.00009  -0.00002   1.87531
   A63        1.89897  -0.00001  -0.00014   0.00000  -0.00014   1.89883
   A64        1.87550   0.00006   0.00024   0.00001   0.00025   1.87575
   A65        1.90955   0.00003  -0.00005   0.00032   0.00027   1.90982
   A66        1.89951  -0.00001   0.00006   0.00005   0.00011   1.89962
   A67        1.91169  -0.00001  -0.00034  -0.00019  -0.00053   1.91116
   A68        1.87532  -0.00005  -0.00024   0.00003  -0.00020   1.87512
   A69        1.89941   0.00001  -0.00018  -0.00020  -0.00039   1.89902
   A70        1.91300  -0.00001   0.00003  -0.00025  -0.00022   1.91277
   A71        1.87614  -0.00005  -0.00015   0.00014  -0.00001   1.87613
   A72        1.90125   0.00001   0.00010  -0.00025  -0.00015   1.90110
    D1        0.00084   0.00001  -0.00005   0.00007   0.00002   0.00087
    D2        2.12114   0.00002   0.00016  -0.00004   0.00012   2.12127
    D3       -2.10911  -0.00001  -0.00021  -0.00003  -0.00024  -2.10934
    D4        0.01120  -0.00001   0.00000  -0.00014  -0.00014   0.01106
    D5       -0.00044  -0.00002   0.00008  -0.00003   0.00005  -0.00039
    D6       -2.10964  -0.00001  -0.00013  -0.00000  -0.00013  -2.10977
    D7        2.11987  -0.00001   0.00015   0.00015   0.00030   2.12017
    D8        0.01067   0.00001  -0.00006   0.00018   0.00012   0.01079
    D9        0.09141   0.00006   0.00039   0.00041   0.00080   0.09221
   D10        2.15609   0.00004   0.00020  -0.00024  -0.00004   2.15605
   D11       -2.16667   0.00003   0.00032   0.00034   0.00066  -2.16600
   D12       -0.10198   0.00001   0.00014  -0.00032  -0.00018  -0.10216
   D13       -0.00059   0.00001   0.00009  -0.00007   0.00003  -0.00056
   D14        2.11966  -0.00000  -0.00011  -0.00016  -0.00027   2.11939
   D15       -2.10985   0.00001  -0.00005   0.00000  -0.00005  -2.10990
   D16        0.01040  -0.00000  -0.00026  -0.00009  -0.00035   0.01005
   D17       -0.10265  -0.00004  -0.00036  -0.00016  -0.00052  -0.10317
   D18       -2.16200  -0.00004   0.00027  -0.00007   0.00021  -2.16179
   D19        2.15394  -0.00003  -0.00034  -0.00014  -0.00049   2.15346
   D20        0.09459  -0.00003   0.00028  -0.00005   0.00024   0.09483
   D21       -0.00007  -0.00002  -0.00017   0.00002  -0.00015  -0.00022
   D22        2.12005   0.00000  -0.00004   0.00015   0.00011   2.12016
   D23       -2.10979  -0.00001  -0.00004   0.00008   0.00004  -2.10975
   D24        0.01033   0.00001   0.00009   0.00021   0.00030   0.01064
   D25       -0.10437   0.00004   0.00014   0.00019   0.00034  -0.10403
   D26       -2.16528  -0.00001  -0.00044  -0.00009  -0.00053  -2.16581
   D27        2.15339   0.00001   0.00015   0.00009   0.00024   2.15363
   D28        0.09248  -0.00003  -0.00044  -0.00019  -0.00063   0.09186
   D29        0.00047   0.00001   0.00020   0.00002   0.00022   0.00069
   D30        2.12116   0.00002   0.00011  -0.00009   0.00003   2.12119
   D31       -2.10932  -0.00002  -0.00005  -0.00000  -0.00005  -2.10937
   D32        0.01137  -0.00001  -0.00014  -0.00011  -0.00025   0.01112
   D33       -2.16622   0.00003   0.00023   0.00018   0.00042  -2.16581
   D34       -0.10224   0.00001   0.00028  -0.00017   0.00011  -0.10213
   D35        0.09171   0.00005   0.00037   0.00018   0.00055   0.09225
   D36        2.15569   0.00004   0.00042  -0.00018   0.00024   2.15593
   D37       -0.00022   0.00001  -0.00015  -0.00001  -0.00017  -0.00039
   D38        2.11936   0.00001   0.00002  -0.00002   0.00000   2.11936
   D39       -2.10988   0.00001  -0.00003   0.00008   0.00005  -2.10983
   D40        0.00969   0.00001   0.00014   0.00008   0.00022   0.00992
   D41       -2.16188  -0.00004   0.00019  -0.00015   0.00004  -2.16183
   D42       -0.10321  -0.00003  -0.00011   0.00001  -0.00010  -0.10331
   D43        0.09510  -0.00004  -0.00005  -0.00013  -0.00018   0.09493
   D44        2.15377  -0.00003  -0.00034   0.00002  -0.00032   2.15345
   D45        0.09160  -0.00002  -0.00002   0.00001  -0.00001   0.09160
   D46        2.15354   0.00001   0.00007  -0.00005   0.00002   2.15356
   D47       -2.16566   0.00000  -0.00028   0.00006  -0.00022  -2.16587
   D48       -0.10372   0.00003  -0.00019  -0.00000  -0.00019  -0.10391
   D49        0.00154   0.00001   0.00012  -0.00013  -0.00001   0.00153
   D50       -2.10937   0.00001  -0.00050   0.00029  -0.00021  -2.10958
   D51        2.11973   0.00005   0.00054   0.00004   0.00058   2.12031
   D52        0.00882   0.00005  -0.00009   0.00047   0.00038   0.00920
   D53       -0.00182   0.00002   0.00051   0.00010   0.00061  -0.00121
   D54        2.11887   0.00002  -0.00007  -0.00000  -0.00007   2.11879
   D55       -2.10963   0.00001   0.00033  -0.00008   0.00025  -2.10937
   D56        0.01106   0.00001  -0.00025  -0.00018  -0.00043   0.01063
   D57       -0.10326   0.00000   0.00017  -0.00010   0.00007  -0.10319
   D58       -2.16287   0.00000   0.00019  -0.00014   0.00005  -2.16282
   D59        2.15224   0.00002   0.00029   0.00011   0.00040   2.15265
   D60        0.09264   0.00002   0.00031   0.00007   0.00038   0.09302
   D61        0.00004  -0.00003  -0.00063   0.00015  -0.00048  -0.00044
   D62       -2.11045   0.00003   0.00014   0.00010   0.00024  -2.11021
   D63        2.12201  -0.00000   0.00006  -0.00038  -0.00032   2.12169
   D64        0.01152   0.00005   0.00083  -0.00043   0.00040   0.01192
   D65        2.15504  -0.00003   0.00035  -0.00001   0.00034   2.15538
   D66        0.09622  -0.00008  -0.00002  -0.00072  -0.00073   0.09549
   D67       -0.10321  -0.00005  -0.00046   0.00048   0.00002  -0.10319
   D68       -2.16203  -0.00009  -0.00083  -0.00023  -0.00105  -2.16308
   D69       -0.00134   0.00001   0.00051  -0.00013   0.00038  -0.00097
   D70       -2.10946   0.00002   0.00044  -0.00026   0.00018  -2.10928
   D71        2.11916   0.00001  -0.00021  -0.00007  -0.00027   2.11888
   D72        0.01104   0.00001  -0.00028  -0.00020  -0.00047   0.01057
   D73        0.09145  -0.00005  -0.00100   0.00025  -0.00075   0.09071
   D74        2.15546  -0.00008  -0.00083   0.00018  -0.00065   2.15481
   D75       -2.16718  -0.00001  -0.00022   0.00012  -0.00009  -2.16727
   D76       -0.10317  -0.00005  -0.00005   0.00005   0.00000  -0.10317
   D77        0.00106   0.00002   0.00013   0.00009   0.00022   0.00128
   D78       -2.10953   0.00003  -0.00021   0.00014  -0.00007  -2.10960
   D79        2.11963   0.00003   0.00032   0.00026   0.00059   2.12021
   D80        0.00903   0.00004  -0.00002   0.00031   0.00029   0.00933
   D81        0.09221   0.00003   0.00054   0.00028   0.00083   0.09303
   D82        2.15280   0.00001   0.00001  -0.00005  -0.00004   2.15276
   D83       -2.16359   0.00001   0.00054   0.00011   0.00065  -2.16294
   D84       -0.10299  -0.00000   0.00001  -0.00022  -0.00022  -0.10321
   D85        0.00052  -0.00003  -0.00064  -0.00007  -0.00071  -0.00019
   D86       -2.11027   0.00003   0.00015  -0.00001   0.00014  -2.11013
   D87        2.12203  -0.00000  -0.00012  -0.00021  -0.00033   2.12169
   D88        0.01124   0.00006   0.00067  -0.00015   0.00052   0.01176
   D89        2.15522  -0.00003   0.00023  -0.00008   0.00015   2.15538
   D90        0.09557  -0.00006   0.00005  -0.00031  -0.00026   0.09531
   D91       -0.10265  -0.00006  -0.00043   0.00011  -0.00032  -0.10296
   D92       -2.16230  -0.00009  -0.00061  -0.00012  -0.00073  -2.16303
   D93       -0.10362  -0.00003   0.00012   0.00022   0.00034  -0.10327
   D94       -2.16761   0.00001   0.00002   0.00015   0.00017  -2.16744
   D95        2.15531  -0.00008  -0.00065   0.00022  -0.00042   2.15489
   D96        0.09132  -0.00004  -0.00075   0.00016  -0.00059   0.09073
   D97       -1.90228   0.00002   0.00049  -0.00042   0.00007  -1.90221
   D98        0.16312   0.00009   0.00064   0.00047   0.00111   0.16423
   D99        0.16372   0.00002  -0.00019  -0.00033  -0.00053   0.16319
   D100       2.22911   0.00009  -0.00004   0.00056   0.00051   2.22963
   D101       1.88649   0.00004   0.00012   0.00006   0.00015   1.88664
   D102      -0.16196   0.00006  -0.00015   0.00016   0.00001  -0.16195
   D103      -0.15806   0.00002   0.00072   0.00010   0.00081  -0.15725
   D104      -2.20650   0.00005   0.00045   0.00020   0.00066  -2.20584
   D105       1.88624  -0.00000  -0.00033   0.00019  -0.00014   1.88610
   D106      -0.16290   0.00007   0.00012   0.00066   0.00078  -0.16212
   D107      -0.15761  -0.00009  -0.00066  -0.00052  -0.00118  -0.15879
   D108      -2.20675  -0.00001  -0.00021  -0.00005  -0.00026  -2.20701
   D109      -1.90459   0.00002  -0.00029  -0.00013  -0.00042  -1.90501
   D110       0.16431   0.00007   0.00045   0.00015   0.00060   0.16490
   D111       0.16730  -0.00006   0.00006  -0.00023  -0.00018   0.16713
   D112       2.23620  -0.00001   0.00080   0.00005   0.00084   2.23704
   D113       1.88717  -0.00001   0.00005  -0.00009  -0.00005   1.88712
   D114      -0.15834   0.00004   0.00062   0.00009   0.00071  -0.15763
   D115      -0.15868  -0.00006  -0.00057  -0.00026  -0.00084  -0.15952
   D116      -2.20419  -0.00001   0.00000  -0.00008  -0.00008  -2.20427
   D117      -1.90504  -0.00000   0.00016   0.00029   0.00044  -1.90460
   D118       0.16262  -0.00002  -0.00015   0.00033   0.00018   0.16280
   D119       0.16725  -0.00005  -0.00017  -0.00041  -0.00058   0.16667
   D120       2.23491  -0.00007  -0.00048  -0.00037  -0.00085   2.23406
   D121       1.88741  -0.00003  -0.00011  -0.00009  -0.00020   1.88721
   D122      -0.15944  -0.00004  -0.00021   0.00007  -0.00014  -0.15958
   D123      -0.15725   0.00001   0.00008  -0.00022  -0.00014  -0.15739
   D124      -2.20410  -0.00000  -0.00002  -0.00007  -0.00009  -2.20418
   D125      -1.90496   0.00002  -0.00000  -0.00009  -0.00009  -1.90505
   D126       0.16509   0.00005   0.00011  -0.00018  -0.00007   0.16502
   D127       0.16699  -0.00005   0.00017  -0.00009   0.00008   0.16707
   D128       2.23704  -0.00002   0.00028  -0.00018   0.00010   2.23714
   D129       1.88630   0.00003   0.00021   0.00013   0.00034   1.88664
   D130      -0.15752   0.00001   0.00049  -0.00008   0.00041  -0.15711
   D131      -0.16201   0.00006  -0.00006   0.00010   0.00005  -0.16197
   D132      -2.20584   0.00004   0.00022  -0.00011   0.00012  -2.20572
   D133      -1.90221   0.00001   0.00024  -0.00028  -0.00004  -1.90225
   D134       0.16393   0.00007   0.00035   0.00013   0.00048   0.16441
   D135       0.16302   0.00004  -0.00004  -0.00001  -0.00006   0.16297
   D136       2.22917   0.00010   0.00006   0.00040   0.00046   2.22962
   D137       1.88626   0.00000  -0.00016   0.00005  -0.00011   1.88615
   D138      -0.16205   0.00006  -0.00005   0.00017   0.00012  -0.16193
   D139      -0.15832  -0.00007  -0.00046  -0.00016  -0.00062  -0.15894
   D140      -2.20663  -0.00002  -0.00035  -0.00004  -0.00039  -2.20702
   D141      -1.90502  -0.00001   0.00002   0.00035   0.00037  -1.90464
   D142       0.16654  -0.00004   0.00003  -0.00001   0.00002   0.16656
   D143       0.16352  -0.00004  -0.00061   0.00003  -0.00058   0.16294
   D144       2.23507  -0.00007  -0.00060  -0.00033  -0.00093   2.23413
         Item               Value     Threshold  Converged?
 Maximum Force            0.000207     0.000450     YES
 RMS     Force            0.000045     0.000300     YES
 Maximum Displacement     0.000886     0.001800     YES
 RMS     Displacement     0.000161     0.001200     YES
 Predicted change in Energy=-1.709647D-06
 Optimization completed.
    -- Stationary point found.
                           ----------------------------
                           !   Optimized Parameters   !
                           ! (Angstroms and Degrees)  !
 --------------------------                            --------------------------
 ! Name  Definition              Value          Derivative Info.                !
 --------------------------------------------------------------------------------
 ! R1    R(1,2)                  1.423          -DE/DX =    0.0                 !
 ! R2    R(1,6)                  1.4235         -DE/DX =   -0.0001              !
 ! R3    R(1,17)                 1.5304         -DE/DX =    0.0001              !
 ! R4    R(2,3)                  1.423          -DE/DX =    0.0                 !
 ! R5    R(2,13)                 1.5326         -DE/DX =    0.0                 !
 ! R6    R(3,4)                  1.4232         -DE/DX =    0.0                 !
 ! R7    R(3,16)                 1.5312         -DE/DX =   -0.0001              !
 ! R8    R(4,5)                  1.423          -DE/DX =    0.0                 !
 ! R9    R(4,24)                 1.5308         -DE/DX =    0.0                 !
 ! R10   R(5,6)                  1.4229         -DE/DX =    0.0                 !
 ! R11   R(5,21)                 1.5329         -DE/DX =    0.0                 !
 ! R12   R(6,20)                 1.5309         -DE/DX =    0.0                 !
 ! R13   R(7,8)                  1.4228         -DE/DX =    0.0001              !
 ! R14   R(7,12)                 1.4233         -DE/DX =    0.0002              !
 ! R15   R(7,18)                 1.532          -DE/DX =    0.0                 !
 ! R16   R(8,9)                  1.423          -DE/DX =   -0.0001              !
 ! R17   R(8,14)                 1.5327         -DE/DX =   -0.0002              !
 ! R18   R(9,10)                 1.4232         -DE/DX =    0.0002              !
 ! R19   R(9,15)                 1.5304         -DE/DX =    0.0001              !
 ! R20   R(10,11)                1.4231         -DE/DX =    0.0                 !
 ! R21   R(10,23)                1.5316         -DE/DX =    0.0001              !
 ! R22   R(11,12)                1.4229         -DE/DX =    0.0                 !
 ! R23   R(11,22)                1.5325         -DE/DX =   -0.0002              !
 ! R24   R(12,19)                1.5304         -DE/DX =    0.0                 !
 ! R25   R(13,14)                1.4618         -DE/DX =    0.0                 !
 ! R26   R(13,15)                1.3653         -DE/DX =   -0.0001              !
 ! R27   R(14,17)                1.3651         -DE/DX =    0.0                 !
 ! R28   R(15,16)                1.462          -DE/DX =    0.0001              !
 ! R29   R(16,23)                1.3651         -DE/DX =    0.0                 !
 ! R30   R(17,18)                1.4622         -DE/DX =    0.0                 !
 ! R31   R(18,20)                1.3651         -DE/DX =    0.0                 !
 ! R32   R(19,20)                1.4619         -DE/DX =    0.0001              !
 ! R33   R(19,21)                1.3653         -DE/DX =   -0.0001              !
 ! R34   R(21,22)                1.4617         -DE/DX =    0.0                 !
 ! R35   R(22,24)                1.3651         -DE/DX =    0.0                 !
 ! R36   R(23,24)                1.4623         -DE/DX =    0.0                 !
 ! A1    A(2,1,6)              120.0356         -DE/DX =    0.0                 !
 ! A2    A(2,1,17)             107.2357         -DE/DX =    0.0                 !
 ! A3    A(6,1,17)             106.0333         -DE/DX =    0.0                 !
 ! A4    A(1,2,3)              119.946          -DE/DX =    0.0                 !
 ! A5    A(1,2,13)             106.0146         -DE/DX =    0.0                 !
 ! A6    A(3,2,13)             107.2933         -DE/DX =    0.0                 !
 ! A7    A(2,3,4)              120.0199         -DE/DX =    0.0                 !
 ! A8    A(2,3,16)             106.0248         -DE/DX =    0.0                 !
 ! A9    A(4,3,16)             107.2467         -DE/DX =    0.0                 !
 ! A10   A(3,4,5)              120.0322         -DE/DX =    0.0                 !
 ! A11   A(3,4,24)             106.0316         -DE/DX =    0.0                 !
 ! A12   A(5,4,24)             107.2307         -DE/DX =    0.0                 !
 ! A13   A(4,5,6)              119.9577         -DE/DX =    0.0                 !
 ! A14   A(4,5,21)             106.0216         -DE/DX =    0.0                 !
 ! A15   A(6,5,21)             107.2993         -DE/DX =    0.0                 !
 ! A16   A(1,6,5)              120.0086         -DE/DX =    0.0                 !
 ! A17   A(1,6,20)             107.2256         -DE/DX =    0.0                 !
 ! A18   A(5,6,20)             106.0219         -DE/DX =    0.0                 !
 ! A19   A(8,7,12)             119.941          -DE/DX =    0.0                 !
 ! A20   A(8,7,18)             106.0082         -DE/DX =    0.0                 !
 ! A21   A(12,7,18)            107.2098         -DE/DX =    0.0                 !
 ! A22   A(7,8,9)              119.9962         -DE/DX =    0.0                 !
 ! A23   A(7,8,14)             107.3229         -DE/DX =    0.0                 !
 ! A24   A(9,8,14)             106.0391         -DE/DX =    0.0                 !
 ! A25   A(8,9,10)             120.0598         -DE/DX =    0.0                 !
 ! A26   A(8,9,15)             107.2176         -DE/DX =    0.0                 !
 ! A27   A(10,9,15)            106.055          -DE/DX =   -0.0001              !
 ! A28   A(9,10,11)            119.9478         -DE/DX =    0.0                 !
 ! A29   A(9,10,23)            107.2206         -DE/DX =    0.0                 !
 ! A30   A(11,10,23)           106.0109         -DE/DX =    0.0                 !
 ! A31   A(10,11,12)           119.9846         -DE/DX =    0.0                 !
 ! A32   A(10,11,22)           107.3079         -DE/DX =    0.0                 !
 ! A33   A(12,11,22)           106.0416         -DE/DX =    0.0                 !
 ! A34   A(7,12,11)            120.0706         -DE/DX =    0.0                 !
 ! A35   A(7,12,19)            106.064          -DE/DX =   -0.0001              !
 ! A36   A(11,12,19)           107.2144         -DE/DX =    0.0001              !
 ! A37   A(2,13,14)            107.4658         -DE/DX =    0.0                 !
 ! A38   A(2,13,15)            109.406          -DE/DX =    0.0                 !
 ! A39   A(14,13,15)           108.8173         -DE/DX =    0.0                 !
 ! A40   A(8,14,13)            107.4432         -DE/DX =    0.0001              !
 ! A41   A(8,14,17)            109.3916         -DE/DX =    0.0                 !
 ! A42   A(13,14,17)           108.8091         -DE/DX =    0.0                 !
 ! A43   A(9,15,13)            109.6267         -DE/DX =   -0.0001              !
 ! A44   A(9,15,16)            107.4956         -DE/DX =    0.0                 !
 ! A45   A(13,15,16)           108.9257         -DE/DX =    0.0                 !
 ! A46   A(3,16,15)            107.4554         -DE/DX =    0.0                 !
 ! A47   A(3,16,23)            109.5431         -DE/DX =    0.0                 !
 ! A48   A(15,16,23)           108.8347         -DE/DX =    0.0                 !
 ! A49   A(1,17,14)            109.6246         -DE/DX =    0.0                 !
 ! A50   A(1,17,18)            107.5192         -DE/DX =   -0.0001              !
 ! A51   A(14,17,18)           108.9477         -DE/DX =    0.0                 !
 ! A52   A(7,18,17)            107.4307         -DE/DX =    0.0                 !
 ! A53   A(7,18,20)            109.5118         -DE/DX =    0.0                 !
 ! A54   A(17,18,20)           108.7981         -DE/DX =    0.0                 !
 ! A55   A(12,19,20)           107.4858         -DE/DX =    0.0                 !
 ! A56   A(12,19,21)           109.6336         -DE/DX =   -0.0001              !
 ! A57   A(20,19,21)           108.9266         -DE/DX =    0.0                 !
 ! A58   A(6,20,18)            109.5783         -DE/DX =    0.0                 !
 ! A59   A(6,20,19)            107.4751         -DE/DX =    0.0                 !
 ! A60   A(18,20,19)           108.8584         -DE/DX =    0.0                 !
 ! A61   A(5,21,19)            109.384          -DE/DX =    0.0                 !
 ! A62   A(5,21,22)            107.4485         -DE/DX =    0.0                 !
 ! A63   A(19,21,22)           108.8029         -DE/DX =    0.0                 !
 ! A64   A(11,22,21)           107.4581         -DE/DX =    0.0001              !
 ! A65   A(11,22,24)           109.4092         -DE/DX =    0.0                 !
 ! A66   A(21,22,24)           108.8342         -DE/DX =    0.0                 !
 ! A67   A(10,23,16)           109.532          -DE/DX =    0.0                 !
 ! A68   A(10,23,24)           107.4477         -DE/DX =    0.0                 !
 ! A69   A(16,23,24)           108.828          -DE/DX =    0.0                 !
 ! A70   A(4,24,22)            109.6068         -DE/DX =    0.0                 !
 ! A71   A(4,24,23)            107.4949         -DE/DX =    0.0                 !
 ! A72   A(22,24,23)           108.9337         -DE/DX =    0.0                 !
 ! D1    D(6,1,2,3)              0.0483         -DE/DX =    0.0                 !
 ! D2    D(6,1,2,13)           121.5326         -DE/DX =    0.0                 !
 ! D3    D(17,1,2,3)          -120.8429         -DE/DX =    0.0                 !
 ! D4    D(17,1,2,13)            0.6415         -DE/DX =    0.0                 !
 ! D5    D(2,1,6,5)             -0.0253         -DE/DX =    0.0                 !
 ! D6    D(2,1,6,20)          -120.8732         -DE/DX =    0.0                 !
 ! D7    D(17,1,6,5)           121.4593         -DE/DX =    0.0                 !
 ! D8    D(17,1,6,20)            0.6114         -DE/DX =    0.0                 !
 ! D9    D(2,1,17,14)            5.2374         -DE/DX =    0.0001              !
 ! D10   D(2,1,17,18)          123.5351         -DE/DX =    0.0                 !
 ! D11   D(6,1,17,14)         -124.1408         -DE/DX =    0.0                 !
 ! D12   D(6,1,17,18)           -5.8431         -DE/DX =    0.0                 !
 ! D13   D(1,2,3,4)             -0.0336         -DE/DX =    0.0                 !
 ! D14   D(1,2,3,16)           121.4477         -DE/DX =    0.0                 !
 ! D15   D(13,2,3,4)          -120.8855         -DE/DX =    0.0                 !
 ! D16   D(13,2,3,16)            0.5958         -DE/DX =    0.0                 !
 ! D17   D(1,2,13,14)           -5.8812         -DE/DX =    0.0                 !
 ! D18   D(1,2,13,15)         -123.8733         -DE/DX =    0.0                 !
 ! D19   D(3,2,13,14)          123.4118         -DE/DX =    0.0                 !
 ! D20   D(3,2,13,15)            5.4197         -DE/DX =    0.0                 !
 ! D21   D(2,3,4,5)             -0.0041         -DE/DX =    0.0                 !
 ! D22   D(2,3,4,24)           121.4701         -DE/DX =    0.0                 !
 ! D23   D(16,3,4,5)          -120.882          -DE/DX =    0.0                 !
 ! D24   D(16,3,4,24)            0.5921         -DE/DX =    0.0                 !
 ! D25   D(2,3,16,15)           -5.9801         -DE/DX =    0.0                 !
 ! D26   D(2,3,16,23)         -124.0616         -DE/DX =    0.0                 !
 ! D27   D(4,3,16,15)          123.3804         -DE/DX =    0.0                 !
 ! D28   D(4,3,16,23)            5.2989         -DE/DX =    0.0                 !
 ! D29   D(3,4,5,6)              0.0271         -DE/DX =    0.0                 !
 ! D30   D(3,4,5,21)           121.5336         -DE/DX =    0.0                 !
 ! D31   D(24,4,5,6)          -120.8551         -DE/DX =    0.0                 !
 ! D32   D(24,4,5,21)            0.6514         -DE/DX =    0.0                 !
 ! D33   D(3,4,24,22)         -124.1154         -DE/DX =    0.0                 !
 ! D34   D(3,4,24,23)           -5.8581         -DE/DX =    0.0                 !
 ! D35   D(5,4,24,22)            5.2544         -DE/DX =    0.0001              !
 ! D36   D(5,4,24,23)          123.5117         -DE/DX =    0.0                 !
 ! D37   D(4,5,6,1)             -0.0124         -DE/DX =    0.0                 !
 ! D38   D(4,5,6,20)           121.4303         -DE/DX =    0.0                 !
 ! D39   D(21,5,6,1)          -120.8873         -DE/DX =    0.0                 !
 ! D40   D(21,5,6,20)            0.5554         -DE/DX =    0.0                 !
 ! D41   D(4,5,21,19)         -123.8665         -DE/DX =    0.0                 !
 ! D42   D(4,5,21,22)           -5.9133         -DE/DX =    0.0                 !
 ! D43   D(6,5,21,19)            5.4491         -DE/DX =    0.0                 !
 ! D44   D(6,5,21,22)          123.4022         -DE/DX =    0.0                 !
 ! D45   D(1,6,20,18)            5.2485         -DE/DX =    0.0                 !
 ! D46   D(1,6,20,19)          123.3888         -DE/DX =    0.0                 !
 ! D47   D(5,6,20,18)         -124.0831         -DE/DX =    0.0                 !
 ! D48   D(5,6,20,19)           -5.9428         -DE/DX =    0.0                 !
 ! D49   D(12,7,8,9)             0.0883         -DE/DX =    0.0                 !
 ! D50   D(12,7,8,14)         -120.8579         -DE/DX =    0.0                 !
 ! D51   D(18,7,8,9)           121.4516         -DE/DX =    0.0                 !
 ! D52   D(18,7,8,14)            0.5054         -DE/DX =    0.0                 !
 ! D53   D(8,7,12,11)           -0.1043         -DE/DX =    0.0                 !
 ! D54   D(8,7,12,19)          121.4022         -DE/DX =    0.0                 !
 ! D55   D(18,7,12,11)        -120.8727         -DE/DX =    0.0                 !
 ! D56   D(18,7,12,19)           0.6338         -DE/DX =    0.0                 !
 ! D57   D(8,7,18,17)           -5.9162         -DE/DX =    0.0                 !
 ! D58   D(8,7,18,20)         -123.9231         -DE/DX =    0.0                 !
 ! D59   D(12,7,18,17)         123.3145         -DE/DX =    0.0                 !
 ! D60   D(12,7,18,20)           5.3077         -DE/DX =    0.0                 !
 ! D61   D(7,8,9,10)             0.0023         -DE/DX =    0.0                 !
 ! D62   D(7,8,9,15)          -120.9199         -DE/DX =    0.0                 !
 ! D63   D(14,8,9,10)          121.5822         -DE/DX =    0.0                 !
 ! D64   D(14,8,9,15)            0.66           -DE/DX =    0.0001              !
 ! D65   D(7,8,14,13)          123.4749         -DE/DX =    0.0                 !
 ! D66   D(7,8,14,17)            5.5133         -DE/DX =   -0.0001              !
 ! D67   D(9,8,14,13)           -5.9137         -DE/DX =    0.0                 !
 ! D68   D(9,8,14,17)         -123.8753         -DE/DX =   -0.0001              !
 ! D69   D(8,9,10,11)           -0.077          -DE/DX =    0.0                 !
 ! D70   D(8,9,10,23)         -120.863          -DE/DX =    0.0                 !
 ! D71   D(15,9,10,11)         121.4187         -DE/DX =    0.0                 !
 ! D72   D(15,9,10,23)           0.6326         -DE/DX =    0.0                 !
 ! D73   D(8,9,15,13)            5.2398         -DE/DX =    0.0                 !
 ! D74   D(8,9,15,16)          123.4988         -DE/DX =   -0.0001              !
 ! D75   D(10,9,15,13)        -124.1704         -DE/DX =    0.0                 !
 ! D76   D(10,9,15,16)          -5.9114         -DE/DX =    0.0                 !
 ! D77   D(9,10,11,12)           0.0609         -DE/DX =    0.0                 !
 ! D78   D(9,10,11,22)        -120.8674         -DE/DX =    0.0                 !
 ! D79   D(23,10,11,12)        121.4458         -DE/DX =    0.0                 !
 ! D80   D(23,10,11,22)          0.5175         -DE/DX =    0.0                 !
 ! D81   D(9,10,23,16)           5.2831         -DE/DX =    0.0                 !
 ! D82   D(9,10,23,24)         123.3463         -DE/DX =    0.0                 !
 ! D83   D(11,10,23,16)       -123.9643         -DE/DX =    0.0                 !
 ! D84   D(11,10,23,24)         -5.9012         -DE/DX =    0.0                 !
 ! D85   D(10,11,12,7)           0.0297         -DE/DX =    0.0                 !
 ! D86   D(10,11,12,19)       -120.9096         -DE/DX =    0.0                 !
 ! D87   D(22,11,12,7)         121.5833         -DE/DX =    0.0                 !
 ! D88   D(22,11,12,19)          0.6441         -DE/DX =    0.0001              !
 ! D89   D(10,11,22,21)        123.4853         -DE/DX =    0.0                 !
 ! D90   D(10,11,22,24)          5.4758         -DE/DX =   -0.0001              !
 ! D91   D(12,11,22,21)         -5.8811         -DE/DX =   -0.0001              !
 ! D92   D(12,11,22,24)       -123.8907         -DE/DX =   -0.0001              !
 ! D93   D(7,12,19,20)          -5.9367         -DE/DX =    0.0                 !
 ! D94   D(7,12,19,21)        -124.195          -DE/DX =    0.0                 !
 ! D95   D(11,12,19,20)        123.4904         -DE/DX =   -0.0001              !
 ! D96   D(11,12,19,21)          5.2321         -DE/DX =    0.0                 !
 ! D97   D(2,13,14,8)         -108.9926         -DE/DX =    0.0                 !
 ! D98   D(2,13,14,17)           9.3461         -DE/DX =    0.0001              !
 ! D99   D(15,13,14,8)           9.3802         -DE/DX =    0.0                 !
 ! D100  D(15,13,14,17)        127.7188         -DE/DX =    0.0001              !
 ! D101  D(2,13,15,9)          108.0878         -DE/DX =    0.0                 !
 ! D102  D(2,13,15,16)          -9.2794         -DE/DX =    0.0001              !
 ! D103  D(14,13,15,9)          -9.0561         -DE/DX =    0.0                 !
 ! D104  D(14,13,15,16)       -126.4233         -DE/DX =    0.0                 !
 ! D105  D(8,14,17,1)          108.0734         -DE/DX =    0.0                 !
 ! D106  D(8,14,17,18)          -9.3337         -DE/DX =    0.0001              !
 ! D107  D(13,14,17,1)          -9.0304         -DE/DX =   -0.0001              !
 ! D108  D(13,14,17,18)       -126.4376         -DE/DX =    0.0                 !
 ! D109  D(9,15,16,3)         -109.1251         -DE/DX =    0.0                 !
 ! D110  D(9,15,16,23)           9.4141         -DE/DX =    0.0001              !
 ! D111  D(13,15,16,3)           9.5858         -DE/DX =   -0.0001              !
 ! D112  D(13,15,16,23)        128.125          -DE/DX =    0.0                 !
 ! D113  D(3,16,23,10)         108.127          -DE/DX =    0.0                 !
 ! D114  D(3,16,23,24)          -9.0724         -DE/DX =    0.0                 !
 ! D115  D(15,16,23,10)         -9.0917         -DE/DX =   -0.0001              !
 ! D116  D(15,16,23,24)       -126.2911         -DE/DX =    0.0                 !
 ! D117  D(1,17,18,7)         -109.151          -DE/DX =    0.0                 !
 ! D118  D(1,17,18,20)           9.3175         -DE/DX =    0.0                 !
 ! D119  D(14,17,18,7)           9.5827         -DE/DX =   -0.0001              !
 ! D120  D(14,17,18,20)        128.0512         -DE/DX =   -0.0001              !
 ! D121  D(7,18,20,6)          108.1408         -DE/DX =    0.0                 !
 ! D122  D(7,18,20,19)          -9.1351         -DE/DX =    0.0                 !
 ! D123  D(17,18,20,6)          -9.0096         -DE/DX =    0.0                 !
 ! D124  D(17,18,20,19)       -126.2856         -DE/DX =    0.0                 !
 ! D125  D(12,19,20,6)        -109.1461         -DE/DX =    0.0                 !
 ! D126  D(12,19,20,18)          9.4589         -DE/DX =    0.0001              !
 ! D127  D(21,19,20,6)           9.568          -DE/DX =   -0.0001              !
 ! D128  D(21,19,20,18)        128.1729         -DE/DX =    0.0                 !
 ! D129  D(12,19,21,5)         108.0771         -DE/DX =    0.0                 !
 ! D130  D(12,19,21,22)         -9.0253         -DE/DX =    0.0                 !
 ! D131  D(20,19,21,5)          -9.2827         -DE/DX =    0.0001              !
 ! D132  D(20,19,21,22)       -126.3851         -DE/DX =    0.0                 !
 ! D133  D(5,21,22,11)        -108.9888         -DE/DX =    0.0                 !
 ! D134  D(5,21,22,24)           9.3927         -DE/DX =    0.0001              !
 ! D135  D(19,21,22,11)          9.3404         -DE/DX =    0.0                 !
 ! D136  D(19,21,22,24)        127.7219         -DE/DX =    0.0001              !
 ! D137  D(11,22,24,4)         108.0747         -DE/DX =    0.0                 !
 ! D138  D(11,22,24,23)         -9.2849         -DE/DX =    0.0001              !
 ! D139  D(21,22,24,4)          -9.0713         -DE/DX =   -0.0001              !
 ! D140  D(21,22,24,23)       -126.4309         -DE/DX =    0.0                 !
 ! D141  D(10,23,24,4)        -109.1494         -DE/DX =    0.0                 !
 ! D142  D(10,23,24,22)          9.5418         -DE/DX =    0.0                 !
 ! D143  D(16,23,24,4)           9.3688         -DE/DX =    0.0                 !
 ! D144  D(16,23,24,22)        128.0599         -DE/DX =   -0.0001              !
 --------------------------------------------------------------------------------
 GradGradGradGradGradGradGradGradGradGradGradGradGradGradGradGradGradGrad

                          Input orientation:                          
 ---------------------------------------------------------------------
 Center     Atomic      Atomic             Coordinates (Angstroms)
 Number     Number       Type             X           Y           Z
 ---------------------------------------------------------------------
      1          6           0       -1.045112   -0.026809    2.196315
      2          6           0       -1.514041   -1.245167    1.630111
      3          6           0       -2.418791   -1.216327    0.532125
      4          6           0       -2.854765    0.030141    0.001297
      5          6           0       -2.386428    1.248495    0.568058
      6          6           0       -1.481387    1.219901    1.665618
      7          6           0        1.350059    0.736657   -0.044027
      8          6           0        1.367670   -0.685810   -0.018988
      9          6           0        0.592929   -1.423526   -0.957395
     10          6           0       -0.199845   -0.739773   -1.921428
     11          6           0       -0.218759    0.682968   -1.945522
     12          6           0        0.555678    1.420418   -1.006944
     13          6           0       -0.265446   -2.006518    1.171700
     14          6           0        0.883181   -1.123876    1.367554
     15          6           0       -0.374764   -2.298633   -0.157474
     16          6           0       -1.729386   -1.977277   -0.603755
     17          6           0        0.480372   -0.027578    2.074180
     18          6           0        0.863796    1.177586    1.340216
     19          6           0       -0.412852    2.298028   -0.210711
     20          6           0       -0.233798    1.977760    1.204370
     21          6           0       -1.697261    2.007766   -0.571373
     22          6           0       -1.671480    1.123270   -1.734806
     23          6           0       -1.651730   -1.177991   -1.707647
     24          6           0       -2.443897    0.028557   -1.473332
 ---------------------------------------------------------------------
                    Distance matrix (angstroms):
                    1          2          3          4          5
     1  C    0.000000
     2  C    1.422982   0.000000
     3  C    2.464036   1.423017   0.000000
     4  C    2.845380   2.465154   1.423213   0.000000
     5  C    2.465106   2.847343   2.465296   1.423005   0.000000
     6  C    1.423468   2.465540   2.845829   2.464074   1.422868
     7  C    3.367322   3.864380   4.283729   4.264008   3.820728
     8  C    3.341163   3.366997   3.862960   4.282751   4.263732
     9  C    3.818362   3.341605   3.366313   3.862490   4.282904
    10  C    4.263637   3.820466   3.342267   3.367231   3.864181
    11  C    4.282693   4.263873   3.819189   3.341380   3.367001
    12  C    3.862365   4.282889   4.262467   3.818448   3.341583
    13  C    2.361560   1.532575   2.381250   3.496055   3.931674
    14  C    2.368273   2.414606   3.407273   4.143749   4.117971
    15  C    3.339293   2.367109   2.413500   3.405702   4.141896
    16  C    3.480367   2.360618   1.531192   2.379558   3.494346
    17  C    1.530366   2.378530   3.492307   3.927253   3.480705
    18  C    2.414001   3.407034   4.142367   4.115462   3.341439
    19  C    3.405641   4.141917   4.114157   3.339341   2.367066
    20  C    2.379177   3.493928   3.927887   3.479952   2.360198
    21  C    3.496411   3.932133   3.483258   2.361941   1.532888
    22  C    4.143516   4.117881   3.342329   2.368364   2.414542
    23  C    4.115110   3.341272   2.367791   2.413994   3.406824
    24  C    3.927591   3.481143   2.360556   1.530799   2.378828
                    6          7          8          9         10
     6  C    0.000000
     7  C    3.342678   0.000000
     8  C    3.819262   1.422797   0.000000
     9  C    4.262709   2.464525   1.423045   0.000000
    10  C    4.283640   2.847224   2.465622   1.423153   0.000000
    11  C    3.863011   2.465716   2.846373   2.464254   1.423071
    12  C    3.366367   1.423299   2.464059   2.844619   2.464451
    13  C    3.483138   3.407765   2.414348   2.368487   3.343110
    14  C    3.342651   2.381622   1.532688   2.362081   3.483947
    15  C    4.114409   3.492975   2.378329   1.530397   2.360545
    16  C    3.928551   4.142671   3.406112   2.413472   2.367947
    17  C    2.360429   2.413962   2.366838   3.339429   4.115191
    18  C    2.368029   1.531991   2.360841   3.481116   3.930129
    19  C    2.413448   2.360830   3.479987   3.926716   3.492873
    20  C    1.530874   2.368002   3.340047   4.114055   4.142070
    21  C    2.381482   3.343647   4.117558   4.143398   3.407914
    22  C    3.407104   3.483949   3.931060   3.495437   2.381484
    23  C    4.142200   3.929918   3.494365   2.379424   1.531571
    24  C    3.492668   4.115632   4.141676   3.405444   2.413896
                   11         12         13         14         15
    11  C    0.000000
    12  C    1.422853   0.000000
    13  C    4.117352   4.143021   0.000000
    14  C    3.931340   3.495559   1.461766   0.000000
    15  C    3.480143   3.926660   1.365278   2.299607   0.000000
    16  C    3.340545   4.114415   2.301351   3.382287   1.461998
    17  C    4.141457   3.405245   2.299330   1.365080   3.296851
    18  C    3.494659   2.379720   3.382618   2.301706   3.982612
    19  C    2.378163   1.530437   4.523484   3.984979   4.597127
    20  C    3.405661   2.413257   3.984538   3.300670   4.490214
    21  C    2.414404   2.368636   4.604658   4.497255   4.523868
    22  C    1.532536   2.361845   4.496696   4.604411   3.984829
    23  C    2.360755   3.480714   3.301345   3.985670   2.299895
    24  C    2.366952   3.339498   3.985395   4.524178   3.380622
                   16         17         18         19         20
    16  C    0.000000
    17  C    3.981921   0.000000
    18  C    4.522917   1.462237   0.000000
    19  C    4.490655   3.380388   2.300130   0.000000
    20  C    4.598741   2.299563   1.365081   1.461877   0.000000
    21  C    3.985304   3.985431   3.301876   1.365297   2.301279
    22  C    3.300912   4.523637   3.985767   2.299362   3.381691
    23  C    1.365088   4.491272   4.600661   3.982254   4.522072
    24  C    2.300013   4.597754   4.491899   3.296946   3.981710
                   21         22         23         24
    21  C    0.000000
    22  C    1.461703   0.000000
    23  C    3.382638   2.301506   0.000000
    24  C    2.299623   1.365062   1.462256   0.000000
 Stoichiometry    C24
 Framework group  C1[X(C24)]
 Deg. of freedom    66
 Full point group                 C1      NOp   1
 Largest Abelian subgroup         C1      NOp   1
 Largest concise Abelian subgroup C1      NOp   1
                         Standard orientation:                         
 ---------------------------------------------------------------------
 Center     Atomic      Atomic             Coordinates (Angstroms)
 Number     Number       Type             X           Y           Z
 ---------------------------------------------------------------------
      1          6           0        1.111691    0.887671    1.635821
      2          6           0        1.325640   -0.519135    1.636256
      3          6           0        0.213420   -1.406797    1.635879
      4          6           0       -1.111790   -0.887807    1.635791
      5          6           0       -1.325696    0.519029    1.636167
      6          6           0       -0.213744    1.406789    1.636048
      7          6           0        0.463896    1.346036   -1.636658
      8          6           0        1.397032    0.271975   -1.635703
      9          6           0        0.933267   -1.073379   -1.635621
     10          6           0       -0.463550   -1.345902   -1.636544
     11          6           0       -1.396937   -0.271695   -1.635893
     12          6           0       -0.933049    1.073415   -1.635631
     13          6           0        2.150469   -0.821753    0.380523
     14          6           0        2.263472    0.421302   -0.380268
     15          6           0        1.494909   -1.746070   -0.380966
     16          6           0        0.362657   -2.270872    0.380629
     17          6           0        1.785013    1.448348    0.381111
     18          6           0        0.765986    2.169268   -0.380462
     19          6           0       -1.494871    1.746035   -0.380969
     20          6           0       -0.362628    2.270315    0.380766
     21          6           0       -2.150866    0.821838    0.380322
     22          6           0       -2.263211   -0.421157   -0.380546
     23          6           0       -0.765782   -2.168908   -0.380748
     24          6           0       -1.785328   -1.448547    0.380696
 ---------------------------------------------------------------------
 Rotational constants (GHZ):      0.5418415      0.5414270      0.4796863

 **********************************************************************

            Population analysis using the SCF density.

 **********************************************************************

 Orbital symmetries:
       Occupied  (A) (A) (A) (A) (A) (A) (A) (A) (A) (A) (A) (A)
                 (A) (A) (A) (A) (A) (A) (A) (A) (A) (A) (A) (A)
                 (A) (A) (A) (A) (A) (A) (A) (A) (A) (A) (A) (A)
                 (A) (A) (A) (A) (A) (A) (A) (A) (A) (A) (A) (A)
                 (A) (A) (A) (A) (A) (A) (A) (A) (A) (A) (A) (A)
                 (A) (A) (A) (A) (A) (A) (A) (A) (A) (A) (A) (A)
       Virtual   (A) (A) (A) (A) (A) (A) (A) (A) (A) (A) (A) (A)
                 (A) (A) (A) (A) (A) (A) (A) (A) (A) (A) (A) (A)
                 (A) (A) (A) (A) (A) (A) (A) (A) (A) (A) (A) (A)
                 (A) (A) (A) (A) (A) (A) (A) (A) (A) (A) (A) (A)
                 (A) (A) (A) (A) (A) (A) (A) (A) (A) (A) (A) (A)
                 (A) (A) (A) (A) (A) (A) (A) (A) (A) (A) (A) (A)
                 (A) (A) (A) (A) (A) (A) (A) (A) (A) (A) (A) (A)
                 (A) (A) (A) (A) (A) (A) (A) (A) (A) (A) (A) (A)
                 (A) (A) (A) (A) (A) (A) (A) (A) (A) (A) (A) (A)
                 (A) (A) (A) (A) (A) (A) (A) (A) (A) (A) (A) (A)
                 (A) (A) (A) (A) (A) (A) (A) (A) (A) (A) (A) (A)
                 (A) (A) (A) (A) (A) (A) (A) (A) (A) (A) (A) (A)
                 (A) (A) (A) (A) (A) (A) (A) (A) (A) (A) (A) (A)
                 (A) (A) (A) (A) (A) (A) (A) (A) (A) (A) (A) (A)
                 (A) (A) (A) (A) (A) (A) (A) (A) (A) (A) (A) (A)
                 (A) (A) (A) (A) (A) (A) (A) (A) (A) (A) (A) (A)
                 (A) (A) (A) (A) (A) (A) (A) (A) (A) (A) (A) (A)
                 (A) (A) (A) (A) (A) (A) (A) (A) (A) (A) (A) (A)
                 (A) (A) (A) (A) (A) (A) (A) (A) (A) (A) (A) (A)
                 (A) (A) (A) (A) (A) (A) (A) (A) (A) (A) (A) (A)
                 (A) (A) (A) (A) (A) (A) (A) (A) (A) (A) (A) (A)
                 (A) (A) (A) (A) (A) (A) (A) (A) (A) (A) (A) (A)
                 (A) (A) (A) (A) (A) (A) (A) (A) (A) (A) (A) (A)
                 (A) (A) (A) (A) (A) (A) (A) (A) (A) (A) (A) (A)
 The electronic state is 1-A.
 Alpha  occ. eigenvalues --  -10.24918 -10.24917 -10.24905 -10.24904 -10.24888
 Alpha  occ. eigenvalues --  -10.24886 -10.24856 -10.24855 -10.24842 -10.24839
 Alpha  occ. eigenvalues --  -10.24826 -10.24824 -10.24034 -10.24032 -10.24026
 Alpha  occ. eigenvalues --  -10.24019 -10.24008 -10.24002 -10.23956 -10.23948
 Alpha  occ. eigenvalues --  -10.23946 -10.23937 -10.23922 -10.23918  -0.99732
 Alpha  occ. eigenvalues --   -0.94324  -0.94313  -0.90962  -0.84093  -0.84085
 Alpha  occ. eigenvalues --   -0.81671  -0.81663  -0.79872  -0.72510  -0.70058
 Alpha  occ. eigenvalues --   -0.70047  -0.69651  -0.67503  -0.67489  -0.60083
 Alpha  occ. eigenvalues --   -0.57590  -0.57562  -0.55454  -0.55444  -0.51565
 Alpha  occ. eigenvalues --   -0.51453  -0.50259  -0.50258  -0.48621  -0.44692
 Alpha  occ. eigenvalues --   -0.43367  -0.43241  -0.43202  -0.42967  -0.42163
 Alpha  occ. eigenvalues --   -0.42143  -0.40351  -0.38533  -0.38525  -0.36878
 Alpha  occ. eigenvalues --   -0.36866  -0.36518  -0.36505  -0.35181  -0.31416
 Alpha  occ. eigenvalues --   -0.31410  -0.29863  -0.29863  -0.28739  -0.21288
 Alpha  occ. eigenvalues --   -0.20750  -0.20737
 Alpha virt. eigenvalues --   -0.14040  -0.11060  -0.11048  -0.06241  -0.04780
 Alpha virt. eigenvalues --   -0.04741  -0.03017  -0.02976  -0.02346  -0.02322
 Alpha virt. eigenvalues --   -0.00927  -0.00897   0.06970   0.12798   0.12840
 Alpha virt. eigenvalues --    0.15477   0.15481   0.16779   0.16840   0.18474
 Alpha virt. eigenvalues --    0.23532   0.23541   0.23730   0.26034   0.27489
 Alpha virt. eigenvalues --    0.28987   0.29003   0.29440   0.30871   0.30912
 Alpha virt. eigenvalues --    0.34510   0.34522   0.35948   0.36002   0.39772
 Alpha virt. eigenvalues --    0.39783   0.41791   0.42192   0.44963   0.45094
 Alpha virt. eigenvalues --    0.45116   0.46933   0.46953   0.47102   0.47626
 Alpha virt. eigenvalues --    0.47630   0.48530   0.49877   0.50240   0.50244
 Alpha virt. eigenvalues --    0.50496   0.51479   0.52313   0.52319   0.53370
 Alpha virt. eigenvalues --    0.53375   0.54080   0.54092   0.54311   0.54322
 Alpha virt. eigenvalues --    0.54891   0.55257   0.57266   0.57413   0.57417
 Alpha virt. eigenvalues --    0.59859   0.59872   0.61057   0.61090   0.61555
 Alpha virt. eigenvalues --    0.61629   0.61839   0.61857   0.62081   0.63540
 Alpha virt. eigenvalues --    0.63554   0.63669   0.63784   0.64454   0.64486
 Alpha virt. eigenvalues --    0.65192   0.65211   0.65632   0.65650   0.65691
 Alpha virt. eigenvalues --    0.68441   0.72325   0.73297   0.74233   0.74417
 Alpha virt. eigenvalues --    0.74452   0.75132   0.75167   0.78959   0.80380
 Alpha virt. eigenvalues --    0.80386   0.81398   0.81407   0.81453   0.81473
 Alpha virt. eigenvalues --    0.84153   0.84263   0.84268   0.88238   0.88619
 Alpha virt. eigenvalues --    0.88861   0.88874   0.89628   0.89629   0.90385
 Alpha virt. eigenvalues --    0.90397   0.90891   0.92163   0.92175   0.94621
 Alpha virt. eigenvalues --    0.94712   0.98218   1.00082   1.00112   1.01151
 Alpha virt. eigenvalues --    1.01157   1.01594   1.02191   1.02345   1.02811
 Alpha virt. eigenvalues --    1.02828   1.06297   1.06341   1.07124   1.08056
 Alpha virt. eigenvalues --    1.08067   1.10663   1.11504   1.14814   1.47861
 Alpha virt. eigenvalues --    1.48239   1.48260   1.52277   1.52319   1.54601
 Alpha virt. eigenvalues --    1.54656   1.60242   1.60334   1.65162   1.65188
 Alpha virt. eigenvalues --    1.66422   1.66589   1.66600   1.68875   1.68982
 Alpha virt. eigenvalues --    1.69044   1.69102   1.70181   1.70346   1.70994
 Alpha virt. eigenvalues --    1.71060   1.72959   1.74351   1.74357   1.74830
 Alpha virt. eigenvalues --    1.75542   1.76299   1.76303   1.76504   1.76596
 Alpha virt. eigenvalues --    1.77240   1.79066   1.79927   1.79955   1.85589
 Alpha virt. eigenvalues --    1.85627   1.85691   1.87624   1.87747   1.88027
 Alpha virt. eigenvalues --    1.88086   1.89698   1.89821   1.89930   1.92041
 Alpha virt. eigenvalues --    1.92070   1.92088   1.97364   1.97381   1.97768
 Alpha virt. eigenvalues --    2.00503   2.00511   2.00874   2.04088   2.04095
 Alpha virt. eigenvalues --    2.06659   2.07298   2.07335   2.12336   2.12365
 Alpha virt. eigenvalues --    2.15134   2.25346   2.26105   2.26332   2.29896
 Alpha virt. eigenvalues --    2.29988   2.34813   2.34830   2.39334   2.40018
 Alpha virt. eigenvalues --    2.40031   2.40045   2.40135   2.40875   2.40887
 Alpha virt. eigenvalues --    2.41117   2.41145   2.43836   2.44009   2.46377
 Alpha virt. eigenvalues --    2.47112   2.47182   2.48218   2.48249   2.49722
 Alpha virt. eigenvalues --    2.51874   2.55861   2.55979   2.56900   2.56923
 Alpha virt. eigenvalues --    2.59002   2.59051   2.60275   2.60431   2.61609
 Alpha virt. eigenvalues --    2.61675   2.63636   2.67114   2.67279   2.68517
 Alpha virt. eigenvalues --    2.68527   2.70289   2.70369   2.73118   2.73177
 Alpha virt. eigenvalues --    2.73250   2.73419   2.76539   2.76545   2.78183
 Alpha virt. eigenvalues --    2.79361   2.79429   2.81146   2.81191   2.81884
 Alpha virt. eigenvalues --    2.82889   2.86699   2.90137   2.90183   2.93888
 Alpha virt. eigenvalues --    2.96578   3.02353   3.02963   3.02972   3.03697
 Alpha virt. eigenvalues --    3.03711   3.08361   3.27681   3.28967   3.97812
 Alpha virt. eigenvalues --    4.08618   4.08642   4.11956   4.27381   4.27449
 Alpha virt. eigenvalues --    4.29088   4.33880   4.33896   4.59374   4.64771
 Alpha virt. eigenvalues --    4.66378   4.66435   4.75489   4.91385   4.91530
 Alpha virt. eigenvalues --    5.12236   5.12349   5.14308   5.14400   5.19544
 Alpha virt. eigenvalues --    5.20582   5.27161   5.27263
          Condensed to atoms (all electrons):
               1          2          3          4          5          6
     1  C    5.003614   0.519879  -0.063489  -0.043163  -0.063408   0.519762
     2  C    0.519879   5.004821   0.519921  -0.063414  -0.042996  -0.063557
     3  C   -0.063489   0.519921   5.003954   0.519935  -0.063505  -0.043181
     4  C   -0.043163  -0.063414   0.519935   5.003722   0.519776  -0.063523
     5  C   -0.063408  -0.042996  -0.063505   0.519776   5.004677   0.520053
     6  C    0.519762  -0.063557  -0.043181  -0.063523   0.520053   5.004137
     7  C    0.011957   0.000063  -0.000844  -0.000869   0.000491   0.013601
     8  C    0.013605   0.011926   0.000059  -0.000833  -0.000852   0.000495
     9  C    0.000529   0.013617   0.011944   0.000078  -0.000835  -0.000869
    10  C   -0.000864   0.000502   0.013607   0.011957   0.000055  -0.000848
    11  C   -0.000833  -0.000860   0.000490   0.013604   0.011935   0.000068
    12  C    0.000073  -0.000837  -0.000862   0.000527   0.013600   0.011955
    13  C   -0.069624   0.397554  -0.067544   0.003163   0.002190   0.002923
    14  C   -0.087111  -0.092762   0.000462   0.002933   0.002976  -0.001782
    15  C   -0.001849  -0.086460  -0.092060   0.000312   0.002870   0.002953
    16  C    0.002812  -0.069382   0.398275  -0.067655   0.003065   0.002165
    17  C    0.398695  -0.067082   0.003116   0.002140   0.002744  -0.069656
    18  C   -0.092191   0.000521   0.002923   0.002951  -0.001981  -0.087181
    19  C    0.000314   0.002871   0.002953  -0.001830  -0.086462  -0.092096
    20  C   -0.067645   0.003062   0.002161   0.002810  -0.069393   0.398364
    21  C    0.003168   0.002193   0.002918  -0.069597   0.397525  -0.067575
    22  C    0.002929   0.002972  -0.001811  -0.087067  -0.092655   0.000460
    23  C    0.002948  -0.001984  -0.087088  -0.092168   0.000506   0.002919
    24  C    0.002138   0.002754  -0.069679   0.398498  -0.067078   0.003128
               7          8          9         10         11         12
     1  C    0.011957   0.013605   0.000529  -0.000864  -0.000833   0.000073
     2  C    0.000063   0.011926   0.013617   0.000502  -0.000860  -0.000837
     3  C   -0.000844   0.000059   0.011944   0.013607   0.000490  -0.000862
     4  C   -0.000869  -0.000833   0.000078   0.011957   0.013604   0.000527
     5  C    0.000491  -0.000852  -0.000835   0.000055   0.011935   0.013600
     6  C    0.013601   0.000495  -0.000869  -0.000848   0.000068   0.011955
     7  C    5.004833   0.520063  -0.063410  -0.043159  -0.063499   0.519960
     8  C    0.520063   5.003941   0.519746  -0.063460  -0.043013  -0.063478
     9  C   -0.063410   0.519746   5.003604   0.520149  -0.063527  -0.043197
    10  C   -0.043159  -0.063460   0.520149   5.004734   0.519799  -0.063413
    11  C   -0.063499  -0.043013  -0.063527   0.519799   5.004176   0.519945
    12  C    0.519960  -0.063478  -0.043197  -0.063413   0.519945   5.003452
    13  C    0.000469  -0.092524  -0.087267  -0.001804   0.002977   0.002942
    14  C   -0.067484   0.397515  -0.069578   0.002902   0.002190   0.003163
    15  C    0.003102  -0.067090   0.398595  -0.069629   0.002737   0.002134
    16  C    0.002911   0.000509  -0.092134  -0.087160  -0.001959   0.002946
    17  C   -0.092215  -0.086328  -0.001812   0.002949   0.002873   0.000302
    18  C    0.397922  -0.069437   0.002833   0.002166   0.003068  -0.067727
    19  C   -0.069588   0.002724   0.002136   0.003110  -0.067110   0.398592
    20  C   -0.087097  -0.001983   0.002945   0.002911   0.000493  -0.092030
    21  C   -0.001772   0.002977   0.002943   0.000480  -0.092592  -0.087319
    22  C    0.002909   0.002183   0.003156  -0.067471   0.397599  -0.069565
    23  C    0.002166   0.003066  -0.067714   0.398068  -0.069397   0.002816
    24  C    0.002950   0.002874   0.000308  -0.092224  -0.086381  -0.001808
              13         14         15         16         17         18
     1  C   -0.069624  -0.087111  -0.001849   0.002812   0.398695  -0.092191
     2  C    0.397554  -0.092762  -0.086460  -0.069382  -0.067082   0.000521
     3  C   -0.067544   0.000462  -0.092060   0.398275   0.003116   0.002923
     4  C    0.003163   0.002933   0.000312  -0.067655   0.002140   0.002951
     5  C    0.002190   0.002976   0.002870   0.003065   0.002744  -0.001981
     6  C    0.002923  -0.001782   0.002953   0.002165  -0.069656  -0.087181
     7  C    0.000469  -0.067484   0.003102   0.002911  -0.092215   0.397922
     8  C   -0.092524   0.397515  -0.067090   0.000509  -0.086328  -0.069437
     9  C   -0.087267  -0.069578   0.398595  -0.092134  -0.001812   0.002833
    10  C   -0.001804   0.002902  -0.069629  -0.087160   0.002949   0.002166
    11  C    0.002977   0.002190   0.002737  -0.001959   0.002873   0.003068
    12  C    0.002942   0.003163   0.002134   0.002946   0.000302  -0.067727
    13  C    5.067019   0.415581   0.573267  -0.070237  -0.070612   0.008406
    14  C    0.415581   5.067098  -0.070489   0.008400   0.572897  -0.070271
    15  C    0.573267  -0.070489   5.065261   0.414098  -0.013485   0.002354
    16  C   -0.070237   0.008400   0.414098   5.066082   0.002358  -0.001141
    17  C   -0.070612   0.572897  -0.013485   0.002358   5.065043   0.414431
    18  C    0.008406  -0.070271   0.002354  -0.001141   0.414431   5.067186
    19  C   -0.001136   0.002373  -0.000984   0.001648   0.008555  -0.070446
    20  C    0.002344  -0.013074   0.001652  -0.000988  -0.070345   0.573399
    21  C   -0.000999   0.001589  -0.001136   0.002340   0.002356  -0.012964
    22  C    0.001593  -0.000999   0.002374  -0.013054  -0.001136   0.002348
    23  C   -0.012993   0.002349  -0.070514   0.573361   0.001645  -0.000989
    24  C    0.002358  -0.001137   0.008556  -0.070294  -0.000982   0.001640
              19         20         21         22         23         24
     1  C    0.000314  -0.067645   0.003168   0.002929   0.002948   0.002138
     2  C    0.002871   0.003062   0.002193   0.002972  -0.001984   0.002754
     3  C    0.002953   0.002161   0.002918  -0.001811  -0.087088  -0.069679
     4  C   -0.001830   0.002810  -0.069597  -0.087067  -0.092168   0.398498
     5  C   -0.086462  -0.069393   0.397525  -0.092655   0.000506  -0.067078
     6  C   -0.092096   0.398364  -0.067575   0.000460   0.002919   0.003128
     7  C   -0.069588  -0.087097  -0.001772   0.002909   0.002166   0.002950
     8  C    0.002724  -0.001983   0.002977   0.002183   0.003066   0.002874
     9  C    0.002136   0.002945   0.002943   0.003156  -0.067714   0.000308
    10  C    0.003110   0.002911   0.000480  -0.067471   0.398068  -0.092224
    11  C   -0.067110   0.000493  -0.092592   0.397599  -0.069397  -0.086381
    12  C    0.398592  -0.092030  -0.087319  -0.069565   0.002816  -0.001808
    13  C   -0.001136   0.002344  -0.000999   0.001593  -0.012993   0.002358
    14  C    0.002373  -0.013074   0.001589  -0.000999   0.002349  -0.001137
    15  C   -0.000984   0.001652  -0.001136   0.002374  -0.070514   0.008556
    16  C    0.001648  -0.000988   0.002340  -0.013054   0.573361  -0.070294
    17  C    0.008555  -0.070345   0.002356  -0.001136   0.001645  -0.000982
    18  C   -0.070446   0.573399  -0.012964   0.002348  -0.000989   0.001640
    19  C    5.065272   0.414059   0.573257  -0.070553   0.002355  -0.013489
    20  C    0.414059   5.065728  -0.070276   0.008397  -0.001140   0.002361
    21  C    0.573257  -0.070276   5.067288   0.415511   0.008408  -0.070540
    22  C   -0.070553   0.008397   0.415511   5.066800  -0.070309   0.572938
    23  C    0.002355  -0.001140   0.008408  -0.070309   5.066803   0.414451
    24  C   -0.013489   0.002361  -0.070540   0.572938   0.414451   5.065306
 Mulliken charges:
               1
     1  C    0.007755
     2  C    0.006677
     3  C    0.007345
     4  C    0.007713
     5  C    0.006703
     6  C    0.007284
     7  C    0.006539
     8  C    0.007317
     9  C    0.007760
    10  C    0.006644
    11  C    0.007215
    12  C    0.007829
    13  C   -0.008046
    14  C   -0.007740
    15  C   -0.006567
    16  C   -0.006969
    17  C   -0.006451
    18  C   -0.007822
    19  C   -0.006523
    20  C   -0.006718
    21  C   -0.008181
    22  C   -0.007550
    23  C   -0.007566
    24  C   -0.006649
 Sum of Mulliken charges =  -0.00000
 Mulliken charges with hydrogens summed into heavy atoms:
               1
     1  C    0.007755
     2  C    0.006677
     3  C    0.007345
     4  C    0.007713
     5  C    0.006703
     6  C    0.007284
     7  C    0.006539
     8  C    0.007317
     9  C    0.007760
    10  C    0.006644
    11  C    0.007215
    12  C    0.007829
    13  C   -0.008046
    14  C   -0.007740
    15  C   -0.006567
    16  C   -0.006969
    17  C   -0.006451
    18  C   -0.007822
    19  C   -0.006523
    20  C   -0.006718
    21  C   -0.008181
    22  C   -0.007550
    23  C   -0.007566
    24  C   -0.006649
 Electronic spatial extent (au):  <R**2>=           2899.6876
 Charge=              0.0000 electrons
 Dipole moment (field-independent basis, Debye):
    X=             -0.0007    Y=              0.0006    Z=              0.0024  Tot=              0.0026
 Quadrupole moment (field-independent basis, Debye-Ang):
   XX=           -131.1544   YY=           -131.0612   ZZ=           -131.9987
   XY=              0.0028   XZ=              0.0027   YZ=              0.0027
 Traceless Quadrupole moment (field-independent basis, Debye-Ang):
   XX=              0.2503   YY=              0.3436   ZZ=             -0.5939
   XY=              0.0028   XZ=              0.0027   YZ=              0.0027
 Octapole moment (field-independent basis, Debye-Ang**2):
  XXX=             -0.0012  YYY=              0.0079  ZZZ=              0.0077  XYY=             -0.0060
  XXY=              0.0002  XXZ=              0.0086  XZZ=              0.0009  YZZ=             -0.0006
  YYZ=              0.0095  XYZ=              0.0471
 Hexadecapole moment (field-independent basis, Debye-Ang**3):
 XXXX=          -1586.7056 YYYY=          -1583.5796 ZZZZ=          -1272.9138 XXXY=              0.1397
 XXXZ=              0.0214 YYYX=             -0.1023 YYYZ=              0.0291 ZZZX=              0.0003
 ZZZY=              0.0003 XXYY=           -528.1210 XXZZ=           -471.8650 YYZZ=           -471.5996
 XXYZ=              0.0082 YYXZ=              0.0144 ZZXY=             -0.0055
 N-N= 1.906305063333D+03 E-N=-5.927346172188D+03  KE= 9.056668684870D+02
 1\1\GINC-T150\FOpt\RB3LYP\6-31G(d,p)\C24\LV15011\10-Nov-2025\0\\# opt 
 freq b3lyp/6-31g(d,p) scf=xqc\\Title Card Required\\0,1\C,-1.045112388
 4,-0.0268086673,2.1963150184\C,-1.5140413603,-1.2451667105,1.630110637
 5\C,-2.4187913387,-1.2163266417,0.5321253053\C,-2.8547649958,0.0301414
 605,0.0012972715\C,-2.386427748,1.248495152,0.5680578391\C,-1.48138671
 58,1.2199014512,1.6656178067\C,1.3500593957,0.736657479,-0.0440266616\
 C,1.3676699903,-0.6858103345,-0.0189884197\C,0.5929286512,-1.423525820
 5,-0.9573953616\C,-0.1998447553,-0.7397732875,-1.9214276582\C,-0.21875
 85288,0.6829684598,-1.9455218195\C,0.5556782474,1.420417916,-1.0069441
 458\C,-0.2654461512,-2.0065184123,1.1716996006\C,0.8831811576,-1.12387
 63341,1.3675544718\C,-0.374763709,-2.2986328155,-0.1574741379\C,-1.729
 3863726,-1.9772770752,-0.6037554637\C,0.4803721804,-0.0275782221,2.074
 1801534\C,0.8637962099,1.1775856826,1.3402160786\C,-0.4128521433,2.298
 0282706,-0.2107108998\C,-0.2337983718,1.9777598153,1.2043695478\C,-1.6
 972610131,2.0077660667,-0.5713725436\C,-1.6714798199,1.1232697488,-1.7
 348059904\C,-1.6517301916,-1.1779912821,-1.7076470831\C,-2.443897229,0
 .0285571007,-1.4733315458\\Version=ES64L-G09RevD.01\State=1-A\HF=-913.
 8397969\RMSD=7.683e-09\RMSF=1.642e-04\Dipole=-0.0007515,0.0003695,0.00
 05545\Quadrupole=-0.1779772,0.2250081,-0.0470309,0.0221908,0.322481,0.
 0263717\PG=C01 [X(C24)]\\@


 LIFE IS A CONTINUAL STRUGGLE AGAINST THE TENDENCY TO PRODUCE ENTROPY.
 Job cpu time:       0 days  2 hours 10 minutes  8.6 seconds.
 File lengths (MBytes):  RWF=     82 Int=      0 D2E=      0 Chk=     10 Scr=      1
 Normal termination of Gaussian 09 at Mon Nov 10 06:42:08 2025.
 Link1:  Proceeding to internal job step number  2.
 ----------------------------------------------------------------------
 #N Geom=AllCheck Guess=TCheck SCRF=Check GenChk RB3LYP/6-31G(d,p) Freq
 ----------------------------------------------------------------------
 1/10=4,29=7,30=1,38=1,40=1/1,3;
 2/12=2,40=1/2;
 3/5=1,6=6,7=101,11=2,14=-4,16=1,25=1,30=1,70=2,71=2,74=-5,116=1,140=1/1,2,3;
 4/5=101/1;
 5/5=2,8=3,13=1,98=1/2,8;
 8/6=4,10=90,11=11/1;
 11/6=1,8=1,9=11,15=111,16=1/1,2,10;
 10/6=1/2;
 6/7=2,8=2,9=2,10=2,18=1,28=1/1;
 7/8=1,10=1,25=1/1,2,3,16;
 1/10=4,30=1/3;
 99//99;
 Structure from the checkpoint file:  "/scratch/tmp/3419169/Gau-146785.chk"
 -------------------
 Title Card Required
 -------------------
 Charge =  0 Multiplicity = 1
 Redundant internal coordinates found in file.
 C,0,-1.0451123884,-0.0268086673,2.1963150184
 C,0,-1.5140413603,-1.2451667105,1.6301106375
 C,0,-2.4187913387,-1.2163266417,0.5321253053
 C,0,-2.8547649958,0.0301414605,0.0012972715
 C,0,-2.386427748,1.248495152,0.5680578391
 C,0,-1.4813867158,1.2199014512,1.6656178067
 C,0,1.3500593957,0.736657479,-0.0440266616
 C,0,1.3676699903,-0.6858103345,-0.0189884197
 C,0,0.5929286512,-1.4235258205,-0.9573953616
 C,0,-0.1998447553,-0.7397732875,-1.9214276582
 C,0,-0.2187585288,0.6829684598,-1.9455218195
 C,0,0.5556782474,1.420417916,-1.0069441458
 C,0,-0.2654461512,-2.0065184123,1.1716996006
 C,0,0.8831811576,-1.1238763341,1.3675544718
 C,0,-0.374763709,-2.2986328155,-0.1574741379
 C,0,-1.7293863726,-1.9772770752,-0.6037554637
 C,0,0.4803721804,-0.0275782221,2.0741801534
 C,0,0.8637962099,1.1775856826,1.3402160786
 C,0,-0.4128521433,2.2980282706,-0.2107108998
 C,0,-0.2337983718,1.9777598153,1.2043695478
 C,0,-1.6972610131,2.0077660667,-0.5713725436
 C,0,-1.6714798199,1.1232697488,-1.7348059904
 C,0,-1.6517301916,-1.1779912821,-1.7076470831
 C,0,-2.443897229,0.0285571007,-1.4733315458
 Recover connectivity data from disk.

 GradGradGradGradGradGradGradGradGradGradGradGradGradGradGradGradGradGrad
 Berny optimization.
 Initialization pass.
                           ----------------------------
                           !    Initial Parameters    !
                           ! (Angstroms and Degrees)  !
 --------------------------                            --------------------------
 ! Name  Definition              Value          Derivative Info.                !
 --------------------------------------------------------------------------------
 ! R1    R(1,2)                  1.423          calculate D2E/DX2 analytically  !
 ! R2    R(1,6)                  1.4235         calculate D2E/DX2 analytically  !
 ! R3    R(1,17)                 1.5304         calculate D2E/DX2 analytically  !
 ! R4    R(2,3)                  1.423          calculate D2E/DX2 analytically  !
 ! R5    R(2,13)                 1.5326         calculate D2E/DX2 analytically  !
 ! R6    R(3,4)                  1.4232         calculate D2E/DX2 analytically  !
 ! R7    R(3,16)                 1.5312         calculate D2E/DX2 analytically  !
 ! R8    R(4,5)                  1.423          calculate D2E/DX2 analytically  !
 ! R9    R(4,24)                 1.5308         calculate D2E/DX2 analytically  !
 ! R10   R(5,6)                  1.4229         calculate D2E/DX2 analytically  !
 ! R11   R(5,21)                 1.5329         calculate D2E/DX2 analytically  !
 ! R12   R(6,20)                 1.5309         calculate D2E/DX2 analytically  !
 ! R13   R(7,8)                  1.4228         calculate D2E/DX2 analytically  !
 ! R14   R(7,12)                 1.4233         calculate D2E/DX2 analytically  !
 ! R15   R(7,18)                 1.532          calculate D2E/DX2 analytically  !
 ! R16   R(8,9)                  1.423          calculate D2E/DX2 analytically  !
 ! R17   R(8,14)                 1.5327         calculate D2E/DX2 analytically  !
 ! R18   R(9,10)                 1.4232         calculate D2E/DX2 analytically  !
 ! R19   R(9,15)                 1.5304         calculate D2E/DX2 analytically  !
 ! R20   R(10,11)                1.4231         calculate D2E/DX2 analytically  !
 ! R21   R(10,23)                1.5316         calculate D2E/DX2 analytically  !
 ! R22   R(11,12)                1.4229         calculate D2E/DX2 analytically  !
 ! R23   R(11,22)                1.5325         calculate D2E/DX2 analytically  !
 ! R24   R(12,19)                1.5304         calculate D2E/DX2 analytically  !
 ! R25   R(13,14)                1.4618         calculate D2E/DX2 analytically  !
 ! R26   R(13,15)                1.3653         calculate D2E/DX2 analytically  !
 ! R27   R(14,17)                1.3651         calculate D2E/DX2 analytically  !
 ! R28   R(15,16)                1.462          calculate D2E/DX2 analytically  !
 ! R29   R(16,23)                1.3651         calculate D2E/DX2 analytically  !
 ! R30   R(17,18)                1.4622         calculate D2E/DX2 analytically  !
 ! R31   R(18,20)                1.3651         calculate D2E/DX2 analytically  !
 ! R32   R(19,20)                1.4619         calculate D2E/DX2 analytically  !
 ! R33   R(19,21)                1.3653         calculate D2E/DX2 analytically  !
 ! R34   R(21,22)                1.4617         calculate D2E/DX2 analytically  !
 ! R35   R(22,24)                1.3651         calculate D2E/DX2 analytically  !
 ! R36   R(23,24)                1.4623         calculate D2E/DX2 analytically  !
 ! A1    A(2,1,6)              120.0356         calculate D2E/DX2 analytically  !
 ! A2    A(2,1,17)             107.2357         calculate D2E/DX2 analytically  !
 ! A3    A(6,1,17)             106.0333         calculate D2E/DX2 analytically  !
 ! A4    A(1,2,3)              119.946          calculate D2E/DX2 analytically  !
 ! A5    A(1,2,13)             106.0146         calculate D2E/DX2 analytically  !
 ! A6    A(3,2,13)             107.2933         calculate D2E/DX2 analytically  !
 ! A7    A(2,3,4)              120.0199         calculate D2E/DX2 analytically  !
 ! A8    A(2,3,16)             106.0248         calculate D2E/DX2 analytically  !
 ! A9    A(4,3,16)             107.2467         calculate D2E/DX2 analytically  !
 ! A10   A(3,4,5)              120.0322         calculate D2E/DX2 analytically  !
 ! A11   A(3,4,24)             106.0316         calculate D2E/DX2 analytically  !
 ! A12   A(5,4,24)             107.2307         calculate D2E/DX2 analytically  !
 ! A13   A(4,5,6)              119.9577         calculate D2E/DX2 analytically  !
 ! A14   A(4,5,21)             106.0216         calculate D2E/DX2 analytically  !
 ! A15   A(6,5,21)             107.2993         calculate D2E/DX2 analytically  !
 ! A16   A(1,6,5)              120.0086         calculate D2E/DX2 analytically  !
 ! A17   A(1,6,20)             107.2256         calculate D2E/DX2 analytically  !
 ! A18   A(5,6,20)             106.0219         calculate D2E/DX2 analytically  !
 ! A19   A(8,7,12)             119.941          calculate D2E/DX2 analytically  !
 ! A20   A(8,7,18)             106.0082         calculate D2E/DX2 analytically  !
 ! A21   A(12,7,18)            107.2098         calculate D2E/DX2 analytically  !
 ! A22   A(7,8,9)              119.9962         calculate D2E/DX2 analytically  !
 ! A23   A(7,8,14)             107.3229         calculate D2E/DX2 analytically  !
 ! A24   A(9,8,14)             106.0391         calculate D2E/DX2 analytically  !
 ! A25   A(8,9,10)             120.0598         calculate D2E/DX2 analytically  !
 ! A26   A(8,9,15)             107.2176         calculate D2E/DX2 analytically  !
 ! A27   A(10,9,15)            106.055          calculate D2E/DX2 analytically  !
 ! A28   A(9,10,11)            119.9478         calculate D2E/DX2 analytically  !
 ! A29   A(9,10,23)            107.2206         calculate D2E/DX2 analytically  !
 ! A30   A(11,10,23)           106.0109         calculate D2E/DX2 analytically  !
 ! A31   A(10,11,12)           119.9846         calculate D2E/DX2 analytically  !
 ! A32   A(10,11,22)           107.3079         calculate D2E/DX2 analytically  !
 ! A33   A(12,11,22)           106.0416         calculate D2E/DX2 analytically  !
 ! A34   A(7,12,11)            120.0706         calculate D2E/DX2 analytically  !
 ! A35   A(7,12,19)            106.064          calculate D2E/DX2 analytically  !
 ! A36   A(11,12,19)           107.2144         calculate D2E/DX2 analytically  !
 ! A37   A(2,13,14)            107.4658         calculate D2E/DX2 analytically  !
 ! A38   A(2,13,15)            109.406          calculate D2E/DX2 analytically  !
 ! A39   A(14,13,15)           108.8173         calculate D2E/DX2 analytically  !
 ! A40   A(8,14,13)            107.4432         calculate D2E/DX2 analytically  !
 ! A41   A(8,14,17)            109.3916         calculate D2E/DX2 analytically  !
 ! A42   A(13,14,17)           108.8091         calculate D2E/DX2 analytically  !
 ! A43   A(9,15,13)            109.6267         calculate D2E/DX2 analytically  !
 ! A44   A(9,15,16)            107.4956         calculate D2E/DX2 analytically  !
 ! A45   A(13,15,16)           108.9257         calculate D2E/DX2 analytically  !
 ! A46   A(3,16,15)            107.4554         calculate D2E/DX2 analytically  !
 ! A47   A(3,16,23)            109.5431         calculate D2E/DX2 analytically  !
 ! A48   A(15,16,23)           108.8347         calculate D2E/DX2 analytically  !
 ! A49   A(1,17,14)            109.6246         calculate D2E/DX2 analytically  !
 ! A50   A(1,17,18)            107.5192         calculate D2E/DX2 analytically  !
 ! A51   A(14,17,18)           108.9477         calculate D2E/DX2 analytically  !
 ! A52   A(7,18,17)            107.4307         calculate D2E/DX2 analytically  !
 ! A53   A(7,18,20)            109.5118         calculate D2E/DX2 analytically  !
 ! A54   A(17,18,20)           108.7981         calculate D2E/DX2 analytically  !
 ! A55   A(12,19,20)           107.4858         calculate D2E/DX2 analytically  !
 ! A56   A(12,19,21)           109.6336         calculate D2E/DX2 analytically  !
 ! A57   A(20,19,21)           108.9266         calculate D2E/DX2 analytically  !
 ! A58   A(6,20,18)            109.5783         calculate D2E/DX2 analytically  !
 ! A59   A(6,20,19)            107.4751         calculate D2E/DX2 analytically  !
 ! A60   A(18,20,19)           108.8584         calculate D2E/DX2 analytically  !
 ! A61   A(5,21,19)            109.384          calculate D2E/DX2 analytically  !
 ! A62   A(5,21,22)            107.4485         calculate D2E/DX2 analytically  !
 ! A63   A(19,21,22)           108.8029         calculate D2E/DX2 analytically  !
 ! A64   A(11,22,21)           107.4581         calculate D2E/DX2 analytically  !
 ! A65   A(11,22,24)           109.4092         calculate D2E/DX2 analytically  !
 ! A66   A(21,22,24)           108.8342         calculate D2E/DX2 analytically  !
 ! A67   A(10,23,16)           109.532          calculate D2E/DX2 analytically  !
 ! A68   A(10,23,24)           107.4477         calculate D2E/DX2 analytically  !
 ! A69   A(16,23,24)           108.828          calculate D2E/DX2 analytically  !
 ! A70   A(4,24,22)            109.6068         calculate D2E/DX2 analytically  !
 ! A71   A(4,24,23)            107.4949         calculate D2E/DX2 analytically  !
 ! A72   A(22,24,23)           108.9337         calculate D2E/DX2 analytically  !
 ! D1    D(6,1,2,3)              0.0483         calculate D2E/DX2 analytically  !
 ! D2    D(6,1,2,13)           121.5326         calculate D2E/DX2 analytically  !
 ! D3    D(17,1,2,3)          -120.8429         calculate D2E/DX2 analytically  !
 ! D4    D(17,1,2,13)            0.6415         calculate D2E/DX2 analytically  !
 ! D5    D(2,1,6,5)             -0.0253         calculate D2E/DX2 analytically  !
 ! D6    D(2,1,6,20)          -120.8732         calculate D2E/DX2 analytically  !
 ! D7    D(17,1,6,5)           121.4593         calculate D2E/DX2 analytically  !
 ! D8    D(17,1,6,20)            0.6114         calculate D2E/DX2 analytically  !
 ! D9    D(2,1,17,14)            5.2374         calculate D2E/DX2 analytically  !
 ! D10   D(2,1,17,18)          123.5351         calculate D2E/DX2 analytically  !
 ! D11   D(6,1,17,14)         -124.1408         calculate D2E/DX2 analytically  !
 ! D12   D(6,1,17,18)           -5.8431         calculate D2E/DX2 analytically  !
 ! D13   D(1,2,3,4)             -0.0336         calculate D2E/DX2 analytically  !
 ! D14   D(1,2,3,16)           121.4477         calculate D2E/DX2 analytically  !
 ! D15   D(13,2,3,4)          -120.8855         calculate D2E/DX2 analytically  !
 ! D16   D(13,2,3,16)            0.5958         calculate D2E/DX2 analytically  !
 ! D17   D(1,2,13,14)           -5.8812         calculate D2E/DX2 analytically  !
 ! D18   D(1,2,13,15)         -123.8733         calculate D2E/DX2 analytically  !
 ! D19   D(3,2,13,14)          123.4118         calculate D2E/DX2 analytically  !
 ! D20   D(3,2,13,15)            5.4197         calculate D2E/DX2 analytically  !
 ! D21   D(2,3,4,5)             -0.0041         calculate D2E/DX2 analytically  !
 ! D22   D(2,3,4,24)           121.4701         calculate D2E/DX2 analytically  !
 ! D23   D(16,3,4,5)          -120.882          calculate D2E/DX2 analytically  !
 ! D24   D(16,3,4,24)            0.5921         calculate D2E/DX2 analytically  !
 ! D25   D(2,3,16,15)           -5.9801         calculate D2E/DX2 analytically  !
 ! D26   D(2,3,16,23)         -124.0616         calculate D2E/DX2 analytically  !
 ! D27   D(4,3,16,15)          123.3804         calculate D2E/DX2 analytically  !
 ! D28   D(4,3,16,23)            5.2989         calculate D2E/DX2 analytically  !
 ! D29   D(3,4,5,6)              0.0271         calculate D2E/DX2 analytically  !
 ! D30   D(3,4,5,21)           121.5336         calculate D2E/DX2 analytically  !
 ! D31   D(24,4,5,6)          -120.8551         calculate D2E/DX2 analytically  !
 ! D32   D(24,4,5,21)            0.6514         calculate D2E/DX2 analytically  !
 ! D33   D(3,4,24,22)         -124.1154         calculate D2E/DX2 analytically  !
 ! D34   D(3,4,24,23)           -5.8581         calculate D2E/DX2 analytically  !
 ! D35   D(5,4,24,22)            5.2544         calculate D2E/DX2 analytically  !
 ! D36   D(5,4,24,23)          123.5117         calculate D2E/DX2 analytically  !
 ! D37   D(4,5,6,1)             -0.0124         calculate D2E/DX2 analytically  !
 ! D38   D(4,5,6,20)           121.4303         calculate D2E/DX2 analytically  !
 ! D39   D(21,5,6,1)          -120.8873         calculate D2E/DX2 analytically  !
 ! D40   D(21,5,6,20)            0.5554         calculate D2E/DX2 analytically  !
 ! D41   D(4,5,21,19)         -123.8665         calculate D2E/DX2 analytically  !
 ! D42   D(4,5,21,22)           -5.9133         calculate D2E/DX2 analytically  !
 ! D43   D(6,5,21,19)            5.4491         calculate D2E/DX2 analytically  !
 ! D44   D(6,5,21,22)          123.4022         calculate D2E/DX2 analytically  !
 ! D45   D(1,6,20,18)            5.2485         calculate D2E/DX2 analytically  !
 ! D46   D(1,6,20,19)          123.3888         calculate D2E/DX2 analytically  !
 ! D47   D(5,6,20,18)         -124.0831         calculate D2E/DX2 analytically  !
 ! D48   D(5,6,20,19)           -5.9428         calculate D2E/DX2 analytically  !
 ! D49   D(12,7,8,9)             0.0883         calculate D2E/DX2 analytically  !
 ! D50   D(12,7,8,14)         -120.8579         calculate D2E/DX2 analytically  !
 ! D51   D(18,7,8,9)           121.4516         calculate D2E/DX2 analytically  !
 ! D52   D(18,7,8,14)            0.5054         calculate D2E/DX2 analytically  !
 ! D53   D(8,7,12,11)           -0.1043         calculate D2E/DX2 analytically  !
 ! D54   D(8,7,12,19)          121.4022         calculate D2E/DX2 analytically  !
 ! D55   D(18,7,12,11)        -120.8727         calculate D2E/DX2 analytically  !
 ! D56   D(18,7,12,19)           0.6338         calculate D2E/DX2 analytically  !
 ! D57   D(8,7,18,17)           -5.9162         calculate D2E/DX2 analytically  !
 ! D58   D(8,7,18,20)         -123.9231         calculate D2E/DX2 analytically  !
 ! D59   D(12,7,18,17)         123.3145         calculate D2E/DX2 analytically  !
 ! D60   D(12,7,18,20)           5.3077         calculate D2E/DX2 analytically  !
 ! D61   D(7,8,9,10)             0.0023         calculate D2E/DX2 analytically  !
 ! D62   D(7,8,9,15)          -120.9199         calculate D2E/DX2 analytically  !
 ! D63   D(14,8,9,10)          121.5822         calculate D2E/DX2 analytically  !
 ! D64   D(14,8,9,15)            0.66           calculate D2E/DX2 analytically  !
 ! D65   D(7,8,14,13)          123.4749         calculate D2E/DX2 analytically  !
 ! D66   D(7,8,14,17)            5.5133         calculate D2E/DX2 analytically  !
 ! D67   D(9,8,14,13)           -5.9137         calculate D2E/DX2 analytically  !
 ! D68   D(9,8,14,17)         -123.8753         calculate D2E/DX2 analytically  !
 ! D69   D(8,9,10,11)           -0.077          calculate D2E/DX2 analytically  !
 ! D70   D(8,9,10,23)         -120.863          calculate D2E/DX2 analytically  !
 ! D71   D(15,9,10,11)         121.4187         calculate D2E/DX2 analytically  !
 ! D72   D(15,9,10,23)           0.6326         calculate D2E/DX2 analytically  !
 ! D73   D(8,9,15,13)            5.2398         calculate D2E/DX2 analytically  !
 ! D74   D(8,9,15,16)          123.4988         calculate D2E/DX2 analytically  !
 ! D75   D(10,9,15,13)        -124.1704         calculate D2E/DX2 analytically  !
 ! D76   D(10,9,15,16)          -5.9114         calculate D2E/DX2 analytically  !
 ! D77   D(9,10,11,12)           0.0609         calculate D2E/DX2 analytically  !
 ! D78   D(9,10,11,22)        -120.8674         calculate D2E/DX2 analytically  !
 ! D79   D(23,10,11,12)        121.4458         calculate D2E/DX2 analytically  !
 ! D80   D(23,10,11,22)          0.5175         calculate D2E/DX2 analytically  !
 ! D81   D(9,10,23,16)           5.2831         calculate D2E/DX2 analytically  !
 ! D82   D(9,10,23,24)         123.3463         calculate D2E/DX2 analytically  !
 ! D83   D(11,10,23,16)       -123.9643         calculate D2E/DX2 analytically  !
 ! D84   D(11,10,23,24)         -5.9012         calculate D2E/DX2 analytically  !
 ! D85   D(10,11,12,7)           0.0297         calculate D2E/DX2 analytically  !
 ! D86   D(10,11,12,19)       -120.9096         calculate D2E/DX2 analytically  !
 ! D87   D(22,11,12,7)         121.5833         calculate D2E/DX2 analytically  !
 ! D88   D(22,11,12,19)          0.6441         calculate D2E/DX2 analytically  !
 ! D89   D(10,11,22,21)        123.4853         calculate D2E/DX2 analytically  !
 ! D90   D(10,11,22,24)          5.4758         calculate D2E/DX2 analytically  !
 ! D91   D(12,11,22,21)         -5.8811         calculate D2E/DX2 analytically  !
 ! D92   D(12,11,22,24)       -123.8907         calculate D2E/DX2 analytically  !
 ! D93   D(7,12,19,20)          -5.9367         calculate D2E/DX2 analytically  !
 ! D94   D(7,12,19,21)        -124.195          calculate D2E/DX2 analytically  !
 ! D95   D(11,12,19,20)        123.4904         calculate D2E/DX2 analytically  !
 ! D96   D(11,12,19,21)          5.2321         calculate D2E/DX2 analytically  !
 ! D97   D(2,13,14,8)         -108.9926         calculate D2E/DX2 analytically  !
 ! D98   D(2,13,14,17)           9.3461         calculate D2E/DX2 analytically  !
 ! D99   D(15,13,14,8)           9.3802         calculate D2E/DX2 analytically  !
 ! D100  D(15,13,14,17)        127.7188         calculate D2E/DX2 analytically  !
 ! D101  D(2,13,15,9)          108.0878         calculate D2E/DX2 analytically  !
 ! D102  D(2,13,15,16)          -9.2794         calculate D2E/DX2 analytically  !
 ! D103  D(14,13,15,9)          -9.0561         calculate D2E/DX2 analytically  !
 ! D104  D(14,13,15,16)       -126.4233         calculate D2E/DX2 analytically  !
 ! D105  D(8,14,17,1)          108.0734         calculate D2E/DX2 analytically  !
 ! D106  D(8,14,17,18)          -9.3337         calculate D2E/DX2 analytically  !
 ! D107  D(13,14,17,1)          -9.0304         calculate D2E/DX2 analytically  !
 ! D108  D(13,14,17,18)       -126.4376         calculate D2E/DX2 analytically  !
 ! D109  D(9,15,16,3)         -109.1251         calculate D2E/DX2 analytically  !
 ! D110  D(9,15,16,23)           9.4141         calculate D2E/DX2 analytically  !
 ! D111  D(13,15,16,3)           9.5858         calculate D2E/DX2 analytically  !
 ! D112  D(13,15,16,23)        128.125          calculate D2E/DX2 analytically  !
 ! D113  D(3,16,23,10)         108.127          calculate D2E/DX2 analytically  !
 ! D114  D(3,16,23,24)          -9.0724         calculate D2E/DX2 analytically  !
 ! D115  D(15,16,23,10)         -9.0917         calculate D2E/DX2 analytically  !
 ! D116  D(15,16,23,24)       -126.2911         calculate D2E/DX2 analytically  !
 ! D117  D(1,17,18,7)         -109.151          calculate D2E/DX2 analytically  !
 ! D118  D(1,17,18,20)           9.3175         calculate D2E/DX2 analytically  !
 ! D119  D(14,17,18,7)           9.5827         calculate D2E/DX2 analytically  !
 ! D120  D(14,17,18,20)        128.0512         calculate D2E/DX2 analytically  !
 ! D121  D(7,18,20,6)          108.1408         calculate D2E/DX2 analytically  !
 ! D122  D(7,18,20,19)          -9.1351         calculate D2E/DX2 analytically  !
 ! D123  D(17,18,20,6)          -9.0096         calculate D2E/DX2 analytically  !
 ! D124  D(17,18,20,19)       -126.2856         calculate D2E/DX2 analytically  !
 ! D125  D(12,19,20,6)        -109.1461         calculate D2E/DX2 analytically  !
 ! D126  D(12,19,20,18)          9.4589         calculate D2E/DX2 analytically  !
 ! D127  D(21,19,20,6)           9.568          calculate D2E/DX2 analytically  !
 ! D128  D(21,19,20,18)        128.1729         calculate D2E/DX2 analytically  !
 ! D129  D(12,19,21,5)         108.0771         calculate D2E/DX2 analytically  !
 ! D130  D(12,19,21,22)         -9.0253         calculate D2E/DX2 analytically  !
 ! D131  D(20,19,21,5)          -9.2827         calculate D2E/DX2 analytically  !
 ! D132  D(20,19,21,22)       -126.3851         calculate D2E/DX2 analytically  !
 ! D133  D(5,21,22,11)        -108.9888         calculate D2E/DX2 analytically  !
 ! D134  D(5,21,22,24)           9.3927         calculate D2E/DX2 analytically  !
 ! D135  D(19,21,22,11)          9.3404         calculate D2E/DX2 analytically  !
 ! D136  D(19,21,22,24)        127.7219         calculate D2E/DX2 analytically  !
 ! D137  D(11,22,24,4)         108.0747         calculate D2E/DX2 analytically  !
 ! D138  D(11,22,24,23)         -9.2849         calculate D2E/DX2 analytically  !
 ! D139  D(21,22,24,4)          -9.0713         calculate D2E/DX2 analytically  !
 ! D140  D(21,22,24,23)       -126.4309         calculate D2E/DX2 analytically  !
 ! D141  D(10,23,24,4)        -109.1494         calculate D2E/DX2 analytically  !
 ! D142  D(10,23,24,22)          9.5418         calculate D2E/DX2 analytically  !
 ! D143  D(16,23,24,4)           9.3688         calculate D2E/DX2 analytically  !
 ! D144  D(16,23,24,22)        128.0599         calculate D2E/DX2 analytically  !
 --------------------------------------------------------------------------------
 Trust Radius=3.00D-01 FncErr=1.00D-07 GrdErr=1.00D-07
 Number of steps in this run=      2 maximum allowed number of steps=      2.
 GradGradGradGradGradGradGradGradGradGradGradGradGradGradGradGradGradGrad

                          Input orientation:                          
 ---------------------------------------------------------------------
 Center     Atomic      Atomic             Coordinates (Angstroms)
 Number     Number       Type             X           Y           Z
 ---------------------------------------------------------------------
      1          6           0       -1.045112   -0.026809    2.196315
      2          6           0       -1.514041   -1.245167    1.630111
      3          6           0       -2.418791   -1.216327    0.532125
      4          6           0       -2.854765    0.030141    0.001297
      5          6           0       -2.386428    1.248495    0.568058
      6          6           0       -1.481387    1.219901    1.665618
      7          6           0        1.350059    0.736657   -0.044027
      8          6           0        1.367670   -0.685810   -0.018988
      9          6           0        0.592929   -1.423526   -0.957395
     10          6           0       -0.199845   -0.739773   -1.921428
     11          6           0       -0.218759    0.682968   -1.945522
     12          6           0        0.555678    1.420418   -1.006944
     13          6           0       -0.265446   -2.006518    1.171700
     14          6           0        0.883181   -1.123876    1.367554
     15          6           0       -0.374764   -2.298633   -0.157474
     16          6           0       -1.729386   -1.977277   -0.603755
     17          6           0        0.480372   -0.027578    2.074180
     18          6           0        0.863796    1.177586    1.340216
     19          6           0       -0.412852    2.298028   -0.210711
     20          6           0       -0.233798    1.977760    1.204370
     21          6           0       -1.697261    2.007766   -0.571373
     22          6           0       -1.671480    1.123270   -1.734806
     23          6           0       -1.651730   -1.177991   -1.707647
     24          6           0       -2.443897    0.028557   -1.473332
 ---------------------------------------------------------------------
                    Distance matrix (angstroms):
                    1          2          3          4          5
     1  C    0.000000
     2  C    1.422982   0.000000
     3  C    2.464036   1.423017   0.000000
     4  C    2.845380   2.465154   1.423213   0.000000
     5  C    2.465106   2.847343   2.465296   1.423005   0.000000
     6  C    1.423468   2.465540   2.845829   2.464074   1.422868
     7  C    3.367322   3.864380   4.283729   4.264008   3.820728
     8  C    3.341163   3.366997   3.862960   4.282751   4.263732
     9  C    3.818362   3.341605   3.366313   3.862490   4.282904
    10  C    4.263637   3.820466   3.342267   3.367231   3.864181
    11  C    4.282693   4.263873   3.819189   3.341380   3.367001
    12  C    3.862365   4.282889   4.262467   3.818448   3.341583
    13  C    2.361560   1.532575   2.381250   3.496055   3.931674
    14  C    2.368273   2.414606   3.407273   4.143749   4.117971
    15  C    3.339293   2.367109   2.413500   3.405702   4.141896
    16  C    3.480367   2.360618   1.531192   2.379558   3.494346
    17  C    1.530366   2.378530   3.492307   3.927253   3.480705
    18  C    2.414001   3.407034   4.142367   4.115462   3.341439
    19  C    3.405641   4.141917   4.114157   3.339341   2.367066
    20  C    2.379177   3.493928   3.927887   3.479952   2.360198
    21  C    3.496411   3.932133   3.483258   2.361941   1.532888
    22  C    4.143516   4.117881   3.342329   2.368364   2.414542
    23  C    4.115110   3.341272   2.367791   2.413994   3.406824
    24  C    3.927591   3.481143   2.360556   1.530799   2.378828
                    6          7          8          9         10
     6  C    0.000000
     7  C    3.342678   0.000000
     8  C    3.819262   1.422797   0.000000
     9  C    4.262709   2.464525   1.423045   0.000000
    10  C    4.283640   2.847224   2.465622   1.423153   0.000000
    11  C    3.863011   2.465716   2.846373   2.464254   1.423071
    12  C    3.366367   1.423299   2.464059   2.844619   2.464451
    13  C    3.483138   3.407765   2.414348   2.368487   3.343110
    14  C    3.342651   2.381622   1.532688   2.362081   3.483947
    15  C    4.114409   3.492975   2.378329   1.530397   2.360545
    16  C    3.928551   4.142671   3.406112   2.413472   2.367947
    17  C    2.360429   2.413962   2.366838   3.339429   4.115191
    18  C    2.368029   1.531991   2.360841   3.481116   3.930129
    19  C    2.413448   2.360830   3.479987   3.926716   3.492873
    20  C    1.530874   2.368002   3.340047   4.114055   4.142070
    21  C    2.381482   3.343647   4.117558   4.143398   3.407914
    22  C    3.407104   3.483949   3.931060   3.495437   2.381484
    23  C    4.142200   3.929918   3.494365   2.379424   1.531571
    24  C    3.492668   4.115632   4.141676   3.405444   2.413896
                   11         12         13         14         15
    11  C    0.000000
    12  C    1.422853   0.000000
    13  C    4.117352   4.143021   0.000000
    14  C    3.931340   3.495559   1.461766   0.000000
    15  C    3.480143   3.926660   1.365278   2.299607   0.000000
    16  C    3.340545   4.114415   2.301351   3.382287   1.461998
    17  C    4.141457   3.405245   2.299330   1.365080   3.296851
    18  C    3.494659   2.379720   3.382618   2.301706   3.982612
    19  C    2.378163   1.530437   4.523484   3.984979   4.597127
    20  C    3.405661   2.413257   3.984538   3.300670   4.490214
    21  C    2.414404   2.368636   4.604658   4.497255   4.523868
    22  C    1.532536   2.361845   4.496696   4.604411   3.984829
    23  C    2.360755   3.480714   3.301345   3.985670   2.299895
    24  C    2.366952   3.339498   3.985395   4.524178   3.380622
                   16         17         18         19         20
    16  C    0.000000
    17  C    3.981921   0.000000
    18  C    4.522917   1.462237   0.000000
    19  C    4.490655   3.380388   2.300130   0.000000
    20  C    4.598741   2.299563   1.365081   1.461877   0.000000
    21  C    3.985304   3.985431   3.301876   1.365297   2.301279
    22  C    3.300912   4.523637   3.985767   2.299362   3.381691
    23  C    1.365088   4.491272   4.600661   3.982254   4.522072
    24  C    2.300013   4.597754   4.491899   3.296946   3.981710
                   21         22         23         24
    21  C    0.000000
    22  C    1.461703   0.000000
    23  C    3.382638   2.301506   0.000000
    24  C    2.299623   1.365062   1.462256   0.000000
 Stoichiometry    C24
 Framework group  C1[X(C24)]
 Deg. of freedom    66
 Full point group                 C1      NOp   1
 Largest Abelian subgroup         C1      NOp   1
 Largest concise Abelian subgroup C1      NOp   1
                         Standard orientation:                         
 ---------------------------------------------------------------------
 Center     Atomic      Atomic             Coordinates (Angstroms)
 Number     Number       Type             X           Y           Z
 ---------------------------------------------------------------------
      1          6           0        1.111691    0.887671    1.635821
      2          6           0        1.325640   -0.519135    1.636256
      3          6           0        0.213420   -1.406797    1.635879
      4          6           0       -1.111790   -0.887807    1.635791
      5          6           0       -1.325696    0.519029    1.636167
      6          6           0       -0.213744    1.406789    1.636048
      7          6           0        0.463896    1.346036   -1.636658
      8          6           0        1.397032    0.271975   -1.635703
      9          6           0        0.933267   -1.073379   -1.635621
     10          6           0       -0.463550   -1.345902   -1.636544
     11          6           0       -1.396937   -0.271695   -1.635893
     12          6           0       -0.933049    1.073415   -1.635631
     13          6           0        2.150469   -0.821753    0.380523
     14          6           0        2.263472    0.421302   -0.380268
     15          6           0        1.494909   -1.746070   -0.380966
     16          6           0        0.362657   -2.270872    0.380629
     17          6           0        1.785013    1.448348    0.381111
     18          6           0        0.765986    2.169268   -0.380462
     19          6           0       -1.494871    1.746035   -0.380969
     20          6           0       -0.362628    2.270315    0.380766
     21          6           0       -2.150866    0.821838    0.380322
     22          6           0       -2.263211   -0.421157   -0.380546
     23          6           0       -0.765782   -2.168908   -0.380748
     24          6           0       -1.785328   -1.448547    0.380696
 ---------------------------------------------------------------------
 Rotational constants (GHZ):      0.5418415      0.5414270      0.4796863
 Standard basis: 6-31G(d,p) (6D, 7F)
 There are   360 symmetry adapted cartesian basis functions of A   symmetry.
 There are   360 symmetry adapted basis functions of A   symmetry.
   360 basis functions,   672 primitive gaussians,   360 cartesian basis functions
    72 alpha electrons       72 beta electrons
       nuclear repulsion energy      1906.3050633329 Hartrees.
 NAtoms=   24 NActive=   24 NUniq=   24 SFac= 1.00D+00 NAtFMM=   60 NAOKFM=F Big=F
 Integral buffers will be    131072 words long.
 Raffenetti 2 integral format.
 Two-electron integral symmetry is turned on.
 One-electron integrals computed using PRISM.
 NBasis=   360 RedAO= T EigKep=  5.42D-04  NBF=   360
 NBsUse=   360 1.00D-06 EigRej= -1.00D+00 NBFU=   360
 Initial guess from the checkpoint file:  "/scratch/tmp/3419169/Gau-146785.chk"
 B after Tr=    -0.000000    0.000000    0.000000
         Rot=    1.000000    0.000000   -0.000000    0.000000 Ang=   0.00 deg.
 Requested convergence on RMS density matrix=1.00D-08 within  64 cycles.
 Requested convergence on MAX density matrix=1.00D-06.
 Requested convergence on             energy=1.00D-06.
 No special actions if energy rises.
 SCF Done:  E(RB3LYP) =  -913.839796948     A.U. after    1 cycles
            NFock=  1  Conv=0.55D-08     -V/T= 2.0090
 QCSCF skips out because SCF is already converged.
 DoSCS=F DFT=T ScalE2(SS,OS)=  1.000000  1.000000
 Range of M.O.s used for correlation:     1   360
 NBasis=   360 NAE=    72 NBE=    72 NFC=     0 NFV=     0
 NROrb=    360 NOA=    72 NOB=    72 NVA=   288 NVB=   288

 **** Warning!!: The smallest alpha delta epsilon is  0.66969250D-01

 Symmetrizing basis deriv contribution to polar:
 IMax=3 JMax=2 DiffMx= 0.00D+00
 G2DrvN: will do    25 centers at a time, making    1 passes.
 Calling FoFCou, ICntrl=  3107 FMM=F I1Cent=   0 AccDes= 0.00D+00.
 End of G2Drv F.D. properties file   721 does not exist.
 End of G2Drv F.D. properties file   722 does not exist.
 End of G2Drv F.D. properties file   788 does not exist.
          IDoAtm=111111111111111111111111
          Differentiating once with respect to electric field.
                with respect to dipole field.
          Differentiating once with respect to nuclear coordinates.
          There are    75 degrees of freedom in the 1st order CPHF.  IDoFFX=6 NUNeed=     3.
     72 vectors produced by pass  0 Test12= 2.76D-14 1.33D-09 XBig12= 7.93D+02 1.28D+01.
 AX will form    72 AO Fock derivatives at one time.
     72 vectors produced by pass  1 Test12= 2.76D-14 1.33D-09 XBig12= 2.48D+02 2.24D+00.
     72 vectors produced by pass  2 Test12= 2.76D-14 1.33D-09 XBig12= 1.02D+01 9.08D-01.
     72 vectors produced by pass  3 Test12= 2.76D-14 1.33D-09 XBig12= 7.11D-02 6.79D-02.
     72 vectors produced by pass  4 Test12= 2.76D-14 1.33D-09 XBig12= 3.82D-04 4.26D-03.
     72 vectors produced by pass  5 Test12= 2.76D-14 1.33D-09 XBig12= 1.39D-06 2.57D-04.
     67 vectors produced by pass  6 Test12= 2.76D-14 1.33D-09 XBig12= 2.72D-09 1.55D-05.
     16 vectors produced by pass  7 Test12= 2.76D-14 1.33D-09 XBig12= 6.48D-12 7.24D-07.
      3 vectors produced by pass  8 Test12= 2.76D-14 1.33D-09 XBig12= 1.69D-14 2.29D-08.
      1 vectors produced by pass  9 Test12= 2.76D-14 1.33D-09 XBig12= 1.36D-16 1.52D-09.
 InvSVY:  IOpt=1 It=  1 EMax= 7.11D-14
 Solved reduced A of dimension   519 with    75 vectors.
 Isotropic polarizability for W=    0.000000      176.37 Bohr**3.
 End of Minotr F.D. properties file   721 does not exist.
 End of Minotr F.D. properties file   722 does not exist.
 End of Minotr F.D. properties file   788 does not exist.

 **********************************************************************

            Population analysis using the SCF density.

 **********************************************************************

 Orbital symmetries:
       Occupied  (A) (A) (A) (A) (A) (A) (A) (A) (A) (A) (A) (A)
                 (A) (A) (A) (A) (A) (A) (A) (A) (A) (A) (A) (A)
                 (A) (A) (A) (A) (A) (A) (A) (A) (A) (A) (A) (A)
                 (A) (A) (A) (A) (A) (A) (A) (A) (A) (A) (A) (A)
                 (A) (A) (A) (A) (A) (A) (A) (A) (A) (A) (A) (A)
                 (A) (A) (A) (A) (A) (A) (A) (A) (A) (A) (A) (A)
       Virtual   (A) (A) (A) (A) (A) (A) (A) (A) (A) (A) (A) (A)
                 (A) (A) (A) (A) (A) (A) (A) (A) (A) (A) (A) (A)
                 (A) (A) (A) (A) (A) (A) (A) (A) (A) (A) (A) (A)
                 (A) (A) (A) (A) (A) (A) (A) (A) (A) (A) (A) (A)
                 (A) (A) (A) (A) (A) (A) (A) (A) (A) (A) (A) (A)
                 (A) (A) (A) (A) (A) (A) (A) (A) (A) (A) (A) (A)
                 (A) (A) (A) (A) (A) (A) (A) (A) (A) (A) (A) (A)
                 (A) (A) (A) (A) (A) (A) (A) (A) (A) (A) (A) (A)
                 (A) (A) (A) (A) (A) (A) (A) (A) (A) (A) (A) (A)
                 (A) (A) (A) (A) (A) (A) (A) (A) (A) (A) (A) (A)
                 (A) (A) (A) (A) (A) (A) (A) (A) (A) (A) (A) (A)
                 (A) (A) (A) (A) (A) (A) (A) (A) (A) (A) (A) (A)
                 (A) (A) (A) (A) (A) (A) (A) (A) (A) (A) (A) (A)
                 (A) (A) (A) (A) (A) (A) (A) (A) (A) (A) (A) (A)
                 (A) (A) (A) (A) (A) (A) (A) (A) (A) (A) (A) (A)
                 (A) (A) (A) (A) (A) (A) (A) (A) (A) (A) (A) (A)
                 (A) (A) (A) (A) (A) (A) (A) (A) (A) (A) (A) (A)
                 (A) (A) (A) (A) (A) (A) (A) (A) (A) (A) (A) (A)
                 (A) (A) (A) (A) (A) (A) (A) (A) (A) (A) (A) (A)
                 (A) (A) (A) (A) (A) (A) (A) (A) (A) (A) (A) (A)
                 (A) (A) (A) (A) (A) (A) (A) (A) (A) (A) (A) (A)
                 (A) (A) (A) (A) (A) (A) (A) (A) (A) (A) (A) (A)
                 (A) (A) (A) (A) (A) (A) (A) (A) (A) (A) (A) (A)
                 (A) (A) (A) (A) (A) (A) (A) (A) (A) (A) (A) (A)
 The electronic state is 1-A.
 Alpha  occ. eigenvalues --  -10.24918 -10.24917 -10.24905 -10.24904 -10.24888
 Alpha  occ. eigenvalues --  -10.24886 -10.24856 -10.24855 -10.24842 -10.24839
 Alpha  occ. eigenvalues --  -10.24826 -10.24824 -10.24034 -10.24032 -10.24026
 Alpha  occ. eigenvalues --  -10.24019 -10.24008 -10.24002 -10.23956 -10.23948
 Alpha  occ. eigenvalues --  -10.23946 -10.23937 -10.23922 -10.23918  -0.99732
 Alpha  occ. eigenvalues --   -0.94324  -0.94313  -0.90962  -0.84093  -0.84085
 Alpha  occ. eigenvalues --   -0.81671  -0.81663  -0.79872  -0.72510  -0.70058
 Alpha  occ. eigenvalues --   -0.70047  -0.69651  -0.67503  -0.67489  -0.60083
 Alpha  occ. eigenvalues --   -0.57590  -0.57562  -0.55454  -0.55444  -0.51565
 Alpha  occ. eigenvalues --   -0.51453  -0.50259  -0.50258  -0.48621  -0.44692
 Alpha  occ. eigenvalues --   -0.43367  -0.43241  -0.43202  -0.42967  -0.42163
 Alpha  occ. eigenvalues --   -0.42143  -0.40351  -0.38533  -0.38525  -0.36878
 Alpha  occ. eigenvalues --   -0.36866  -0.36518  -0.36505  -0.35181  -0.31416
 Alpha  occ. eigenvalues --   -0.31410  -0.29863  -0.29863  -0.28739  -0.21288
 Alpha  occ. eigenvalues --   -0.20750  -0.20737
 Alpha virt. eigenvalues --   -0.14040  -0.11060  -0.11048  -0.06241  -0.04780
 Alpha virt. eigenvalues --   -0.04741  -0.03017  -0.02976  -0.02346  -0.02322
 Alpha virt. eigenvalues --   -0.00927  -0.00897   0.06970   0.12798   0.12840
 Alpha virt. eigenvalues --    0.15477   0.15481   0.16779   0.16840   0.18474
 Alpha virt. eigenvalues --    0.23532   0.23541   0.23730   0.26034   0.27489
 Alpha virt. eigenvalues --    0.28987   0.29003   0.29440   0.30871   0.30912
 Alpha virt. eigenvalues --    0.34510   0.34522   0.35948   0.36002   0.39772
 Alpha virt. eigenvalues --    0.39783   0.41791   0.42192   0.44963   0.45094
 Alpha virt. eigenvalues --    0.45116   0.46933   0.46953   0.47102   0.47626
 Alpha virt. eigenvalues --    0.47630   0.48530   0.49877   0.50240   0.50244
 Alpha virt. eigenvalues --    0.50496   0.51479   0.52313   0.52319   0.53370
 Alpha virt. eigenvalues --    0.53375   0.54080   0.54092   0.54311   0.54322
 Alpha virt. eigenvalues --    0.54891   0.55257   0.57266   0.57413   0.57417
 Alpha virt. eigenvalues --    0.59859   0.59872   0.61057   0.61090   0.61555
 Alpha virt. eigenvalues --    0.61629   0.61839   0.61857   0.62081   0.63540
 Alpha virt. eigenvalues --    0.63554   0.63669   0.63784   0.64454   0.64486
 Alpha virt. eigenvalues --    0.65192   0.65211   0.65632   0.65650   0.65691
 Alpha virt. eigenvalues --    0.68441   0.72325   0.73297   0.74233   0.74417
 Alpha virt. eigenvalues --    0.74452   0.75132   0.75167   0.78959   0.80380
 Alpha virt. eigenvalues --    0.80386   0.81398   0.81407   0.81453   0.81473
 Alpha virt. eigenvalues --    0.84153   0.84263   0.84268   0.88238   0.88619
 Alpha virt. eigenvalues --    0.88861   0.88874   0.89628   0.89629   0.90385
 Alpha virt. eigenvalues --    0.90397   0.90891   0.92163   0.92175   0.94621
 Alpha virt. eigenvalues --    0.94712   0.98218   1.00082   1.00112   1.01151
 Alpha virt. eigenvalues --    1.01157   1.01594   1.02191   1.02345   1.02811
 Alpha virt. eigenvalues --    1.02828   1.06297   1.06341   1.07124   1.08056
 Alpha virt. eigenvalues --    1.08067   1.10663   1.11504   1.14814   1.47862
 Alpha virt. eigenvalues --    1.48239   1.48260   1.52277   1.52319   1.54601
 Alpha virt. eigenvalues --    1.54656   1.60242   1.60334   1.65162   1.65188
 Alpha virt. eigenvalues --    1.66422   1.66589   1.66600   1.68875   1.68982
 Alpha virt. eigenvalues --    1.69044   1.69102   1.70181   1.70346   1.70994
 Alpha virt. eigenvalues --    1.71060   1.72959   1.74351   1.74357   1.74830
 Alpha virt. eigenvalues --    1.75542   1.76299   1.76303   1.76504   1.76596
 Alpha virt. eigenvalues --    1.77240   1.79066   1.79927   1.79955   1.85589
 Alpha virt. eigenvalues --    1.85627   1.85691   1.87624   1.87747   1.88027
 Alpha virt. eigenvalues --    1.88086   1.89698   1.89821   1.89930   1.92041
 Alpha virt. eigenvalues --    1.92070   1.92088   1.97364   1.97381   1.97768
 Alpha virt. eigenvalues --    2.00503   2.00511   2.00874   2.04088   2.04095
 Alpha virt. eigenvalues --    2.06659   2.07298   2.07335   2.12336   2.12365
 Alpha virt. eigenvalues --    2.15134   2.25346   2.26105   2.26332   2.29896
 Alpha virt. eigenvalues --    2.29988   2.34813   2.34830   2.39334   2.40018
 Alpha virt. eigenvalues --    2.40031   2.40045   2.40135   2.40875   2.40887
 Alpha virt. eigenvalues --    2.41117   2.41145   2.43836   2.44010   2.46377
 Alpha virt. eigenvalues --    2.47112   2.47182   2.48218   2.48249   2.49722
 Alpha virt. eigenvalues --    2.51874   2.55861   2.55979   2.56900   2.56923
 Alpha virt. eigenvalues --    2.59002   2.59051   2.60275   2.60431   2.61609
 Alpha virt. eigenvalues --    2.61675   2.63636   2.67114   2.67279   2.68517
 Alpha virt. eigenvalues --    2.68527   2.70289   2.70369   2.73118   2.73177
 Alpha virt. eigenvalues --    2.73250   2.73419   2.76539   2.76545   2.78183
 Alpha virt. eigenvalues --    2.79361   2.79429   2.81146   2.81191   2.81884
 Alpha virt. eigenvalues --    2.82889   2.86699   2.90137   2.90183   2.93888
 Alpha virt. eigenvalues --    2.96578   3.02353   3.02963   3.02972   3.03697
 Alpha virt. eigenvalues --    3.03711   3.08361   3.27681   3.28967   3.97812
 Alpha virt. eigenvalues --    4.08618   4.08642   4.11956   4.27381   4.27449
 Alpha virt. eigenvalues --    4.29088   4.33880   4.33896   4.59374   4.64771
 Alpha virt. eigenvalues --    4.66378   4.66435   4.75489   4.91385   4.91530
 Alpha virt. eigenvalues --    5.12236   5.12349   5.14308   5.14400   5.19544
 Alpha virt. eigenvalues --    5.20582   5.27161   5.27263
          Condensed to atoms (all electrons):
               1          2          3          4          5          6
     1  C    5.003613   0.519879  -0.063490  -0.043163  -0.063408   0.519762
     2  C    0.519879   5.004822   0.519921  -0.063414  -0.042996  -0.063557
     3  C   -0.063490   0.519921   5.003955   0.519935  -0.063505  -0.043181
     4  C   -0.043163  -0.063414   0.519935   5.003722   0.519776  -0.063523
     5  C   -0.063408  -0.042996  -0.063505   0.519776   5.004677   0.520053
     6  C    0.519762  -0.063557  -0.043181  -0.063523   0.520053   5.004136
     7  C    0.011957   0.000063  -0.000844  -0.000869   0.000491   0.013601
     8  C    0.013605   0.011926   0.000059  -0.000833  -0.000852   0.000495
     9  C    0.000529   0.013617   0.011944   0.000078  -0.000835  -0.000869
    10  C   -0.000864   0.000502   0.013607   0.011957   0.000055  -0.000848
    11  C   -0.000833  -0.000860   0.000490   0.013604   0.011935   0.000068
    12  C    0.000073  -0.000837  -0.000862   0.000527   0.013600   0.011955
    13  C   -0.069624   0.397554  -0.067544   0.003163   0.002190   0.002923
    14  C   -0.087111  -0.092762   0.000462   0.002933   0.002976  -0.001782
    15  C   -0.001849  -0.086460  -0.092060   0.000312   0.002870   0.002953
    16  C    0.002812  -0.069382   0.398275  -0.067655   0.003065   0.002165
    17  C    0.398695  -0.067082   0.003116   0.002140   0.002744  -0.069656
    18  C   -0.092191   0.000521   0.002923   0.002951  -0.001981  -0.087181
    19  C    0.000314   0.002871   0.002953  -0.001830  -0.086462  -0.092096
    20  C   -0.067645   0.003062   0.002161   0.002810  -0.069393   0.398364
    21  C    0.003168   0.002193   0.002918  -0.069597   0.397525  -0.067575
    22  C    0.002929   0.002972  -0.001811  -0.087067  -0.092655   0.000460
    23  C    0.002948  -0.001984  -0.087088  -0.092168   0.000506   0.002919
    24  C    0.002138   0.002754  -0.069679   0.398498  -0.067078   0.003128
               7          8          9         10         11         12
     1  C    0.011957   0.013605   0.000529  -0.000864  -0.000833   0.000073
     2  C    0.000063   0.011926   0.013617   0.000502  -0.000860  -0.000837
     3  C   -0.000844   0.000059   0.011944   0.013607   0.000490  -0.000862
     4  C   -0.000869  -0.000833   0.000078   0.011957   0.013604   0.000527
     5  C    0.000491  -0.000852  -0.000835   0.000055   0.011935   0.013600
     6  C    0.013601   0.000495  -0.000869  -0.000848   0.000068   0.011955
     7  C    5.004832   0.520063  -0.063410  -0.043159  -0.063498   0.519960
     8  C    0.520063   5.003942   0.519746  -0.063460  -0.043013  -0.063478
     9  C   -0.063410   0.519746   5.003604   0.520149  -0.063527  -0.043197
    10  C   -0.043159  -0.063460   0.520149   5.004734   0.519799  -0.063413
    11  C   -0.063498  -0.043013  -0.063527   0.519799   5.004175   0.519946
    12  C    0.519960  -0.063478  -0.043197  -0.063413   0.519946   5.003450
    13  C    0.000469  -0.092524  -0.087267  -0.001804   0.002977   0.002942
    14  C   -0.067484   0.397515  -0.069578   0.002902   0.002190   0.003163
    15  C    0.003102  -0.067090   0.398595  -0.069629   0.002737   0.002134
    16  C    0.002911   0.000509  -0.092134  -0.087160  -0.001959   0.002946
    17  C   -0.092215  -0.086328  -0.001812   0.002949   0.002873   0.000302
    18  C    0.397922  -0.069437   0.002833   0.002166   0.003068  -0.067727
    19  C   -0.069588   0.002724   0.002136   0.003110  -0.067110   0.398592
    20  C   -0.087097  -0.001983   0.002945   0.002911   0.000493  -0.092030
    21  C   -0.001772   0.002977   0.002943   0.000480  -0.092592  -0.087319
    22  C    0.002909   0.002183   0.003156  -0.067471   0.397599  -0.069565
    23  C    0.002166   0.003066  -0.067714   0.398068  -0.069397   0.002816
    24  C    0.002950   0.002874   0.000308  -0.092224  -0.086381  -0.001808
              13         14         15         16         17         18
     1  C   -0.069624  -0.087111  -0.001849   0.002812   0.398695  -0.092191
     2  C    0.397554  -0.092762  -0.086460  -0.069382  -0.067082   0.000521
     3  C   -0.067544   0.000462  -0.092060   0.398275   0.003116   0.002923
     4  C    0.003163   0.002933   0.000312  -0.067655   0.002140   0.002951
     5  C    0.002190   0.002976   0.002870   0.003065   0.002744  -0.001981
     6  C    0.002923  -0.001782   0.002953   0.002165  -0.069656  -0.087181
     7  C    0.000469  -0.067484   0.003102   0.002911  -0.092215   0.397922
     8  C   -0.092524   0.397515  -0.067090   0.000509  -0.086328  -0.069437
     9  C   -0.087267  -0.069578   0.398595  -0.092134  -0.001812   0.002833
    10  C   -0.001804   0.002902  -0.069629  -0.087160   0.002949   0.002166
    11  C    0.002977   0.002190   0.002737  -0.001959   0.002873   0.003068
    12  C    0.002942   0.003163   0.002134   0.002946   0.000302  -0.067727
    13  C    5.067019   0.415581   0.573267  -0.070237  -0.070612   0.008406
    14  C    0.415581   5.067098  -0.070489   0.008400   0.572897  -0.070271
    15  C    0.573267  -0.070489   5.065261   0.414098  -0.013485   0.002354
    16  C   -0.070237   0.008400   0.414098   5.066084   0.002358  -0.001141
    17  C   -0.070612   0.572897  -0.013485   0.002358   5.065043   0.414431
    18  C    0.008406  -0.070271   0.002354  -0.001141   0.414431   5.067185
    19  C   -0.001136   0.002373  -0.000984   0.001648   0.008555  -0.070446
    20  C    0.002344  -0.013074   0.001652  -0.000988  -0.070345   0.573399
    21  C   -0.000999   0.001589  -0.001136   0.002340   0.002356  -0.012964
    22  C    0.001593  -0.000999   0.002374  -0.013054  -0.001136   0.002348
    23  C   -0.012993   0.002349  -0.070515   0.573361   0.001645  -0.000989
    24  C    0.002358  -0.001137   0.008556  -0.070294  -0.000982   0.001640
              19         20         21         22         23         24
     1  C    0.000314  -0.067645   0.003168   0.002929   0.002948   0.002138
     2  C    0.002871   0.003062   0.002193   0.002972  -0.001984   0.002754
     3  C    0.002953   0.002161   0.002918  -0.001811  -0.087088  -0.069679
     4  C   -0.001830   0.002810  -0.069597  -0.087067  -0.092168   0.398498
     5  C   -0.086462  -0.069393   0.397525  -0.092655   0.000506  -0.067078
     6  C   -0.092096   0.398364  -0.067575   0.000460   0.002919   0.003128
     7  C   -0.069588  -0.087097  -0.001772   0.002909   0.002166   0.002950
     8  C    0.002724  -0.001983   0.002977   0.002183   0.003066   0.002874
     9  C    0.002136   0.002945   0.002943   0.003156  -0.067714   0.000308
    10  C    0.003110   0.002911   0.000480  -0.067471   0.398068  -0.092224
    11  C   -0.067110   0.000493  -0.092592   0.397599  -0.069397  -0.086381
    12  C    0.398592  -0.092030  -0.087319  -0.069565   0.002816  -0.001808
    13  C   -0.001136   0.002344  -0.000999   0.001593  -0.012993   0.002358
    14  C    0.002373  -0.013074   0.001589  -0.000999   0.002349  -0.001137
    15  C   -0.000984   0.001652  -0.001136   0.002374  -0.070515   0.008556
    16  C    0.001648  -0.000988   0.002340  -0.013054   0.573361  -0.070294
    17  C    0.008555  -0.070345   0.002356  -0.001136   0.001645  -0.000982
    18  C   -0.070446   0.573399  -0.012964   0.002348  -0.000989   0.001640
    19  C    5.065271   0.414059   0.573257  -0.070553   0.002355  -0.013489
    20  C    0.414059   5.065729  -0.070276   0.008397  -0.001140   0.002361
    21  C    0.573257  -0.070276   5.067288   0.415511   0.008408  -0.070540
    22  C   -0.070553   0.008397   0.415511   5.066799  -0.070309   0.572938
    23  C    0.002355  -0.001140   0.008408  -0.070309   5.066803   0.414451
    24  C   -0.013489   0.002361  -0.070540   0.572938   0.414451   5.065307
 Mulliken charges:
               1
     1  C    0.007755
     2  C    0.006677
     3  C    0.007345
     4  C    0.007713
     5  C    0.006703
     6  C    0.007285
     7  C    0.006540
     8  C    0.007316
     9  C    0.007759
    10  C    0.006644
    11  C    0.007216
    12  C    0.007830
    13  C   -0.008046
    14  C   -0.007739
    15  C   -0.006567
    16  C   -0.006970
    17  C   -0.006451
    18  C   -0.007821
    19  C   -0.006523
    20  C   -0.006718
    21  C   -0.008181
    22  C   -0.007549
    23  C   -0.007566
    24  C   -0.006650
 Sum of Mulliken charges =  -0.00000
 Mulliken charges with hydrogens summed into heavy atoms:
               1
     1  C    0.007755
     2  C    0.006677
     3  C    0.007345
     4  C    0.007713
     5  C    0.006703
     6  C    0.007285
     7  C    0.006540
     8  C    0.007316
     9  C    0.007759
    10  C    0.006644
    11  C    0.007216
    12  C    0.007830
    13  C   -0.008046
    14  C   -0.007739
    15  C   -0.006567
    16  C   -0.006970
    17  C   -0.006451
    18  C   -0.007821
    19  C   -0.006523
    20  C   -0.006718
    21  C   -0.008181
    22  C   -0.007549
    23  C   -0.007566
    24  C   -0.006650
 APT charges:
               1
     1  C    0.060818
     2  C    0.063864
     3  C    0.063051
     4  C    0.060375
     5  C    0.064341
     6  C    0.062032
     7  C    0.062829
     8  C    0.064457
     9  C    0.060449
    10  C    0.063085
    11  C    0.063785
    12  C    0.060567
    13  C   -0.066888
    14  C   -0.067690
    15  C   -0.058226
    16  C   -0.062126
    17  C   -0.057369
    18  C   -0.063754
    19  C   -0.057707
    20  C   -0.060994
    21  C   -0.067170
    22  C   -0.066832
    23  C   -0.062828
    24  C   -0.058071
 Sum of APT charges =   0.00000
 APT charges with hydrogens summed into heavy atoms:
               1
     1  C    0.060818
     2  C    0.063864
     3  C    0.063051
     4  C    0.060375
     5  C    0.064341
     6  C    0.062032
     7  C    0.062829
     8  C    0.064457
     9  C    0.060449
    10  C    0.063085
    11  C    0.063785
    12  C    0.060567
    13  C   -0.066888
    14  C   -0.067690
    15  C   -0.058226
    16  C   -0.062126
    17  C   -0.057369
    18  C   -0.063754
    19  C   -0.057707
    20  C   -0.060994
    21  C   -0.067170
    22  C   -0.066832
    23  C   -0.062828
    24  C   -0.058071
 Electronic spatial extent (au):  <R**2>=           2899.6876
 Charge=              0.0000 electrons
 Dipole moment (field-independent basis, Debye):
    X=             -0.0007    Y=              0.0007    Z=              0.0023  Tot=              0.0025
 Quadrupole moment (field-independent basis, Debye-Ang):
   XX=           -131.1544   YY=           -131.0612   ZZ=           -131.9987
   XY=              0.0028   XZ=              0.0027   YZ=              0.0028
 Traceless Quadrupole moment (field-independent basis, Debye-Ang):
   XX=              0.2503   YY=              0.3436   ZZ=             -0.5939
   XY=              0.0028   XZ=              0.0027   YZ=              0.0028
 Octapole moment (field-independent basis, Debye-Ang**2):
  XXX=             -0.0013  YYY=              0.0081  ZZZ=              0.0076  XYY=             -0.0061
  XXY=              0.0002  XXZ=              0.0086  XZZ=              0.0008  YZZ=             -0.0005
  YYZ=              0.0095  XYZ=              0.0470
 Hexadecapole moment (field-independent basis, Debye-Ang**3):
 XXXX=          -1586.7055 YYYY=          -1583.5797 ZZZZ=          -1272.9138 XXXY=              0.1397
 XXXZ=              0.0215 YYYX=             -0.1022 YYYZ=              0.0291 ZZZX=              0.0003
 ZZZY=              0.0004 XXYY=           -528.1211 XXZZ=           -471.8651 YYZZ=           -471.5996
 XXYZ=              0.0082 YYXZ=              0.0145 ZZXY=             -0.0055
 N-N= 1.906305063333D+03 E-N=-5.927346167061D+03  KE= 9.056668677943D+02
  Exact polarizability: 188.693   0.004 188.431  -0.015  -0.015 151.982
 Approx polarizability: 634.931   0.079 633.288  -0.100  -0.096 393.082
 Calling FoFJK, ICntrl=    100127 FMM=F ISym2X=0 I1Cent= 0 IOpClX= 0 NMat=1 NMatS=1 NMatT=0.
 Full mass-weighted force constant matrix:
 Low frequencies ---  -24.6314  -15.0700   -6.8333    0.0006    0.0006    0.0009
 Low frequencies ---  272.1073  278.0243  402.8284
 Diagonal vibrational polarizability:
        6.1840523       6.0061911      28.5836159
 Harmonic frequencies (cm**-1), IR intensities (KM/Mole), Raman scattering
 activities (A**4/AMU), depolarization ratios for plane and unpolarized
 incident light, reduced masses (AMU), force constants (mDyne/A),
 and normal coordinates:
                      1                      2                      3
                      A                      A                      A
 Frequencies --    272.1067               278.0241               402.8280
 Red. masses --     12.0000                12.0000                12.0000
 Frc consts  --      0.5235                 0.5465                 1.1473
 IR Inten    --      0.0001                 0.0064                 0.0603
  Atom  AN      X      Y      Z        X      Y      Z        X      Y      Z
     1   6     0.07   0.02  -0.01    -0.00  -0.06   0.01     0.02  -0.03   0.03
     2   6     0.03   0.05   0.00     0.07  -0.03  -0.03    -0.00   0.05  -0.05
     3   6    -0.04   0.06   0.02     0.05   0.04   0.01    -0.05  -0.00   0.02
     4   6    -0.07  -0.02  -0.01     0.00   0.06   0.01     0.02  -0.03  -0.03
     5   6    -0.03  -0.05   0.00    -0.07   0.03  -0.03    -0.00   0.05   0.05
     6   6     0.04  -0.06   0.02    -0.05  -0.04   0.01    -0.05  -0.00  -0.02
     7   6     0.04   0.07   0.02     0.05  -0.03  -0.00    -0.03   0.01  -0.03
     8   6    -0.04   0.05  -0.01     0.07   0.03   0.02     0.02  -0.05   0.03
     9   6    -0.06   0.01  -0.01    -0.01   0.07  -0.01     0.04   0.02  -0.04
    10   6    -0.04  -0.07   0.02    -0.05   0.03  -0.00    -0.03   0.01   0.03
    11   6     0.04  -0.05  -0.01    -0.07  -0.03   0.02     0.02  -0.05  -0.03
    12   6     0.06  -0.01  -0.01     0.01  -0.07  -0.01     0.04   0.02   0.04
    13   6     0.01   0.09  -0.02     0.39  -0.00  -0.03     0.27  -0.01   0.04
    14   6    -0.10   0.10  -0.02     0.37  -0.04   0.02     0.29  -0.03  -0.05
    15   6    -0.15   0.22  -0.01    -0.04   0.28  -0.03    -0.10   0.25   0.04
    16   6    -0.21   0.28   0.03    -0.02   0.19  -0.00    -0.13   0.25  -0.06
    17   6     0.20   0.26  -0.01    -0.04  -0.21   0.03    -0.16  -0.24  -0.05
    18   6     0.26   0.27   0.03     0.01  -0.12   0.01    -0.17  -0.23   0.05
    19   6     0.15  -0.22  -0.01     0.04  -0.28  -0.03    -0.10   0.25  -0.04
    20   6     0.21  -0.28   0.03     0.02  -0.19  -0.00    -0.13   0.25   0.06
    21   6    -0.01  -0.09  -0.02    -0.39   0.00  -0.03     0.27  -0.01  -0.04
    22   6     0.10  -0.10  -0.02    -0.37   0.04   0.02     0.29  -0.03   0.05
    23   6    -0.26  -0.27   0.03    -0.01   0.12   0.01    -0.17  -0.23  -0.05
    24   6    -0.20  -0.26  -0.01     0.04   0.21   0.03    -0.16  -0.23   0.05
                      4                      5                      6
                      A                      A                      A
 Frequencies --    407.4941               408.8205               478.3336
 Red. masses --     12.0000                12.0000                12.0000
 Frc consts  --      1.1740                 1.1817                 1.6177
 IR Inten    --      5.9440                 6.1083                 0.0004
  Atom  AN      X      Y      Z        X      Y      Z        X      Y      Z
     1   6    -0.05   0.15   0.11     0.20   0.09   0.22     0.01   0.02   0.21
     2   6    -0.10   0.16  -0.13     0.19   0.04   0.21     0.03   0.01   0.22
     3   6    -0.06   0.22  -0.26     0.14   0.07  -0.01     0.02  -0.00   0.22
     4   6    -0.05   0.15  -0.11     0.20   0.09  -0.22    -0.01  -0.02   0.21
     5   6    -0.10   0.16   0.13     0.19   0.04  -0.21    -0.03  -0.01   0.22
     6   6    -0.06   0.22   0.26     0.14   0.07   0.01    -0.02  -0.00   0.22
     7   6     0.05  -0.19   0.15    -0.15  -0.10   0.20     0.02   0.00  -0.22
     8   6     0.08  -0.14  -0.10    -0.21  -0.09   0.23     0.02  -0.02  -0.22
     9   6     0.11  -0.19  -0.24    -0.15  -0.05   0.01     0.00  -0.03  -0.22
    10   6     0.05  -0.19  -0.15    -0.15  -0.10  -0.20    -0.02  -0.00  -0.21
    11   6     0.08  -0.14   0.10    -0.21  -0.09  -0.23    -0.02   0.02  -0.22
    12   6     0.11  -0.19   0.24    -0.15  -0.05  -0.01    -0.00   0.03  -0.22
    13   6    -0.09   0.06  -0.10     0.05  -0.02   0.10    -0.16   0.07   0.03
    14   6    -0.02  -0.01  -0.02    -0.09  -0.04   0.14    -0.18  -0.04  -0.03
    15   6     0.07  -0.06  -0.13    -0.06   0.04   0.05    -0.12   0.13  -0.02
    16   6     0.01   0.07  -0.13     0.01   0.07  -0.04    -0.02   0.20   0.03
    17   6    -0.01   0.02   0.03     0.08   0.04   0.13    -0.14  -0.11   0.02
    18   6     0.00  -0.08   0.10    -0.02  -0.04   0.09    -0.06  -0.19  -0.02
    19   6     0.07  -0.06   0.13    -0.06   0.04  -0.05     0.12  -0.13  -0.02
    20   6     0.01   0.07   0.13     0.01   0.07   0.04     0.02  -0.20   0.03
    21   6    -0.09   0.06   0.10     0.05  -0.02  -0.10     0.16  -0.07   0.03
    22   6    -0.02  -0.01   0.02    -0.09  -0.04  -0.14     0.18   0.04  -0.03
    23   6     0.00  -0.08  -0.10    -0.02  -0.04  -0.09     0.06   0.19  -0.02
    24   6    -0.01   0.02  -0.03     0.08   0.04  -0.13     0.14   0.11   0.02
                      7                      8                      9
                      A                      A                      A
 Frequencies --    505.4834               506.3435               526.8065
 Red. masses --     12.0000                12.0000                12.0000
 Frc consts  --      1.8065                 1.8127                 1.9622
 IR Inten    --      0.2102                 0.0008                 6.2943
  Atom  AN      X      Y      Z        X      Y      Z        X      Y      Z
     1   6     0.17   0.16   0.02    -0.08   0.08   0.08    -0.04   0.04  -0.08
     2   6    -0.09   0.13   0.05    -0.21   0.01  -0.05    -0.07   0.06  -0.30
     3   6    -0.12   0.09  -0.08    -0.00  -0.22  -0.00    -0.04   0.07  -0.22
     4   6    -0.18  -0.16   0.02     0.08  -0.08   0.08    -0.04   0.04   0.08
     5   6     0.09  -0.13   0.05     0.21  -0.01  -0.05    -0.07   0.06   0.30
     6   6     0.12  -0.09  -0.08     0.00   0.22  -0.00    -0.04   0.07   0.22
     7   6    -0.06  -0.22  -0.01     0.13   0.03  -0.08    -0.06  -0.01   0.09
     8   6     0.19  -0.05  -0.06     0.15   0.10   0.03    -0.11  -0.02   0.33
     9   6     0.12   0.03   0.07    -0.13   0.20   0.02    -0.06  -0.01   0.18
    10   6     0.06   0.22  -0.01    -0.13  -0.03  -0.08    -0.06  -0.01  -0.09
    11   6    -0.19   0.05  -0.06    -0.15  -0.10   0.03    -0.11  -0.02  -0.33
    12   6    -0.12  -0.03   0.07     0.13  -0.20   0.02    -0.06  -0.01  -0.18
    13   6    -0.12   0.10   0.16    -0.20   0.09   0.03     0.17  -0.06  -0.04
    14   6     0.19   0.04   0.00     0.15   0.08   0.15     0.21   0.05   0.02
    15   6     0.08  -0.02   0.14    -0.19   0.17  -0.08     0.02  -0.08   0.05
    16   6    -0.03   0.11  -0.05    -0.02  -0.23  -0.14     0.00  -0.22   0.01
    17   6     0.21   0.12  -0.11    -0.04   0.01   0.12    -0.05   0.02  -0.05
    18   6    -0.03  -0.23  -0.14     0.04   0.05  -0.07     0.01   0.16  -0.03
    19   6    -0.08   0.03   0.14     0.19  -0.17  -0.08     0.02  -0.08  -0.05
    20   6     0.03  -0.11  -0.05     0.02   0.22  -0.14     0.00  -0.22  -0.01
    21   6     0.12  -0.10   0.16     0.20  -0.09   0.03     0.17  -0.06   0.04
    22   6    -0.19  -0.04   0.00    -0.15  -0.08   0.15     0.21   0.05  -0.02
    23   6     0.03   0.23  -0.14    -0.04  -0.05  -0.07     0.01   0.16   0.03
    24   6    -0.21  -0.12  -0.11     0.04  -0.01   0.12    -0.04   0.02   0.05
                     10                     11                     12
                      A                      A                      A
 Frequencies --    528.0184               543.8154               547.5902
 Red. masses --     12.0000                12.0000                12.0000
 Frc consts  --      1.9712                 2.0909                 2.1200
 IR Inten    --      5.8737                 0.0517                 0.1394
  Atom  AN      X      Y      Z        X      Y      Z        X      Y      Z
     1   6     0.07   0.06   0.30    -0.17  -0.10  -0.21    -0.10  -0.07  -0.17
     2   6     0.06   0.03   0.09     0.17  -0.09   0.21     0.12  -0.05   0.15
     3   6     0.04   0.06  -0.22    -0.01   0.20  -0.21    -0.01   0.13  -0.17
     4   6     0.07   0.06  -0.30    -0.17  -0.10   0.21    -0.10  -0.07   0.17
     5   6     0.06   0.03  -0.09     0.17  -0.09  -0.21     0.12  -0.05  -0.15
     6   6     0.04   0.06   0.22    -0.01   0.20   0.21    -0.01   0.13   0.17
     7   6    -0.01   0.07  -0.28     0.02   0.09  -0.09    -0.06  -0.21   0.27
     8   6    -0.01   0.06  -0.06    -0.07  -0.02   0.06     0.21   0.06  -0.23
     9   6    -0.04   0.08   0.25     0.06  -0.04  -0.06    -0.16   0.15   0.25
    10   6    -0.01   0.07   0.28     0.01   0.09   0.09    -0.06  -0.22  -0.27
    11   6    -0.01   0.06   0.06    -0.07  -0.02  -0.06     0.21   0.06   0.23
    12   6    -0.04   0.08  -0.25     0.06  -0.04   0.07    -0.16   0.15  -0.25
    13   6    -0.12   0.10  -0.03     0.16  -0.13   0.04     0.00   0.04   0.00
    14   6     0.05   0.06  -0.05    -0.16  -0.11   0.03     0.08   0.02  -0.02
    15   6     0.16  -0.14  -0.00     0.16  -0.08  -0.03    -0.07   0.07   0.03
    16   6     0.04  -0.09  -0.05     0.03   0.18  -0.04    -0.04  -0.06   0.01
    17   6    -0.18  -0.13   0.02    -0.18  -0.07  -0.04     0.05  -0.00   0.00
    18   6    -0.07  -0.16  -0.04    -0.02   0.16  -0.04    -0.02  -0.05   0.02
    19   6     0.16  -0.14   0.00     0.16  -0.07   0.03    -0.08   0.07  -0.03
    20   6     0.04  -0.09   0.05     0.03   0.18   0.04    -0.04  -0.06  -0.01
    21   6    -0.12   0.10   0.03     0.16  -0.13  -0.04     0.00   0.04  -0.00
    22   6     0.05   0.06   0.05    -0.17  -0.11  -0.03     0.08   0.02   0.01
    23   6    -0.07  -0.16   0.04    -0.02   0.16   0.03    -0.02  -0.06  -0.02
    24   6    -0.18  -0.13  -0.02    -0.17  -0.07   0.04     0.06  -0.00  -0.00
                     13                     14                     15
                      A                      A                      A
 Frequencies --    551.5911               581.4353               583.0407
 Red. masses --     12.0000                12.0000                12.0000
 Frc consts  --      2.1511                 2.3902                 2.4034
 IR Inten    --    318.4935                 0.0138                 0.0009
  Atom  AN      X      Y      Z        X      Y      Z        X      Y      Z
     1   6    -0.02   0.00   0.07    -0.10  -0.05   0.06    -0.08   0.02  -0.19
     2   6    -0.01   0.02   0.06     0.06  -0.09   0.14    -0.09   0.02   0.13
     3   6     0.02   0.01   0.07     0.05  -0.02  -0.19    -0.03  -0.14   0.07
     4   6     0.03  -0.00   0.06     0.10   0.05   0.06     0.08  -0.03  -0.19
     5   6     0.01  -0.02   0.06    -0.06   0.09   0.14     0.09  -0.02   0.13
     6   6    -0.02  -0.01   0.07    -0.05   0.02  -0.19     0.03   0.14   0.07
     7   6    -0.01   0.03   0.06    -0.01  -0.12  -0.04    -0.05   0.05  -0.19
     8   6    -0.00   0.02   0.07     0.04  -0.03   0.19    -0.12  -0.08   0.07
     9   6     0.02  -0.00   0.07     0.11  -0.02  -0.14     0.06  -0.08   0.11
    10   6     0.01  -0.03   0.07     0.01   0.12  -0.04     0.05  -0.05  -0.19
    11   6    -0.00  -0.02   0.07    -0.04   0.03   0.19     0.12   0.08   0.07
    12   6    -0.02   0.00   0.07    -0.11   0.02  -0.15    -0.06   0.08   0.11
    13   6    -0.26   0.09  -0.07     0.06  -0.12   0.13     0.11  -0.01   0.24
    14   6     0.27   0.04  -0.07    -0.13  -0.04   0.28    -0.02  -0.10   0.00
    15   6     0.17  -0.21  -0.07     0.14  -0.02  -0.14    -0.05   0.10   0.23
    16   6    -0.05   0.26  -0.06    -0.00   0.15  -0.28    -0.09  -0.04  -0.01
    17   6    -0.21  -0.18  -0.06    -0.01   0.08   0.15    -0.15  -0.04  -0.23
    18   6     0.10   0.26  -0.06     0.08   0.01  -0.14    -0.01   0.16  -0.24
    19   6    -0.17   0.21  -0.07    -0.13   0.02  -0.14     0.05  -0.11   0.24
    20   6     0.05  -0.26  -0.06     0.00  -0.15  -0.28     0.09   0.04  -0.01
    21   6     0.26  -0.08  -0.07    -0.06   0.12   0.13    -0.12   0.01   0.24
    22   6    -0.26  -0.04  -0.07     0.13   0.04   0.28     0.02   0.10   0.00
    23   6    -0.10  -0.26  -0.06    -0.08  -0.02  -0.14     0.01  -0.15  -0.24
    24   6     0.21   0.18  -0.07     0.01  -0.08   0.15     0.15   0.04  -0.23
                     16                     17                     18
                      A                      A                      A
 Frequencies --    598.0740               602.7162               623.4369
 Red. masses --     12.0000                12.0000                12.0000
 Frc consts  --      2.5290                 2.5684                 2.7480
 IR Inten    --     25.5857                26.6930                 0.0071
  Atom  AN      X      Y      Z        X      Y      Z        X      Y      Z
     1   6     0.02   0.11   0.04    -0.11  -0.04  -0.11     0.06   0.11   0.16
     2   6    -0.05   0.09  -0.11    -0.14   0.00  -0.07    -0.10  -0.05  -0.18
     3   6    -0.02   0.11  -0.09    -0.08  -0.01   0.05     0.11  -0.13   0.13
     4   6     0.02   0.11  -0.04    -0.11  -0.04   0.11     0.06   0.11  -0.16
     5   6    -0.05   0.09   0.11    -0.14   0.00   0.07    -0.10  -0.05   0.18
     6   6    -0.02   0.12   0.09    -0.07  -0.01  -0.05     0.11  -0.13  -0.13
     7   6     0.05   0.12  -0.11    -0.08   0.02  -0.03    -0.09  -0.11   0.15
     8   6     0.06   0.07  -0.10    -0.11   0.02   0.05     0.15  -0.07  -0.15
     9   6     0.01   0.10   0.02    -0.11   0.08   0.13     0.01   0.10   0.18
    10   6     0.05   0.12   0.10    -0.08   0.02   0.03    -0.09  -0.11  -0.15
    11   6     0.06   0.07   0.10    -0.11   0.02  -0.05     0.15  -0.07   0.14
    12   6     0.01   0.10  -0.02    -0.11   0.08  -0.13     0.00   0.10  -0.18
    13   6     0.29  -0.20   0.05     0.03  -0.04  -0.00     0.16  -0.09   0.01
    14   6    -0.32  -0.15   0.05     0.02   0.01   0.01    -0.18  -0.04   0.03
    15   6    -0.12   0.10   0.03     0.28  -0.18  -0.04     0.15  -0.10  -0.01
    16   6    -0.03  -0.21   0.02     0.04   0.29  -0.05    -0.01   0.19  -0.04
    17   6     0.12   0.06   0.03     0.30   0.11   0.04    -0.21  -0.03  -0.03
    18   6    -0.01  -0.20   0.01    -0.02  -0.28   0.05    -0.04   0.21  -0.03
    19   6    -0.12   0.10  -0.03     0.28  -0.18   0.04     0.16  -0.10   0.01
    20   6    -0.03  -0.21  -0.02     0.03   0.29   0.05    -0.01   0.19   0.04
    21   6     0.29  -0.20  -0.05     0.03  -0.04   0.00     0.16  -0.09  -0.01
    22   6    -0.32  -0.15  -0.05     0.02   0.01  -0.01    -0.18  -0.04  -0.03
    23   6    -0.01  -0.20  -0.02    -0.01  -0.28  -0.04    -0.04   0.21   0.03
    24   6     0.12   0.06  -0.04     0.30   0.11  -0.04    -0.21  -0.03   0.03
                     19                     20                     21
                      A                      A                      A
 Frequencies --    632.6885               635.2106               635.9030
 Red. masses --     12.0000                12.0000                12.0000
 Frc consts  --      2.8302                 2.8528                 2.8590
 IR Inten    --      0.0147                 4.4589                 5.8803
  Atom  AN      X      Y      Z        X      Y      Z        X      Y      Z
     1   6    -0.19  -0.20  -0.23     0.12   0.14  -0.10    -0.10   0.08   0.08
     2   6     0.22  -0.12   0.20     0.08   0.09  -0.02    -0.17   0.09   0.08
     3   6     0.09  -0.01   0.03     0.07   0.13   0.10    -0.08   0.08   0.10
     4   6     0.19   0.19  -0.23     0.13   0.14   0.09    -0.09   0.09  -0.09
     5   6    -0.22   0.12   0.20     0.08   0.09   0.01    -0.16   0.09  -0.09
     6   6    -0.09   0.01   0.03     0.07   0.14  -0.09    -0.08   0.11  -0.07
     7   6     0.01  -0.17   0.12     0.08   0.15   0.12    -0.12   0.04   0.08
     8   6     0.30   0.04  -0.25     0.11   0.11   0.08    -0.12   0.04  -0.10
     9   6    -0.05   0.15   0.14     0.06   0.12  -0.01    -0.13   0.11  -0.10
    10   6    -0.02   0.17   0.12     0.08   0.16  -0.10    -0.11   0.06  -0.07
    11   6    -0.30  -0.04  -0.25     0.11   0.11  -0.08    -0.12   0.04   0.09
    12   6     0.05  -0.15   0.14     0.05   0.13   0.00    -0.15   0.13   0.08
    13   6    -0.04  -0.01   0.02    -0.22  -0.22  -0.03    -0.00  -0.05   0.06
    14   6    -0.04   0.03  -0.03     0.11  -0.18   0.03     0.12  -0.20  -0.06
    15   6    -0.02  -0.01   0.03    -0.12  -0.29  -0.04     0.05   0.05  -0.06
    16   6    -0.01  -0.03   0.01    -0.19   0.06   0.03     0.23  -0.05   0.06
    17   6    -0.01   0.04  -0.04     0.02  -0.11  -0.07     0.02  -0.30  -0.01
    18   6     0.03   0.05  -0.01    -0.10  -0.01   0.07     0.30   0.08  -0.01
    19   6     0.02   0.01   0.03    -0.12  -0.29   0.04     0.05   0.05   0.06
    20   6     0.01   0.03   0.01    -0.19   0.06  -0.03     0.24  -0.06  -0.05
    21   6     0.04   0.01   0.02    -0.22  -0.22   0.03    -0.00  -0.06  -0.07
    22   6     0.04  -0.02  -0.03     0.11  -0.18  -0.03     0.12  -0.20   0.06
    23   6    -0.03  -0.05  -0.01    -0.10  -0.01  -0.07     0.30   0.08   0.01
    24   6     0.02  -0.04  -0.04     0.01  -0.12   0.07     0.02  -0.31   0.01
                     22                     23                     24
                      A                      A                      A
 Frequencies --    636.0695               640.8533               730.5167
 Red. masses --     12.0000                12.0000                12.0000
 Frc consts  --      2.8605                 2.9037                 3.7730
 IR Inten    --      0.0170                 0.0011                 0.0006
  Atom  AN      X      Y      Z        X      Y      Z        X      Y      Z
     1   6     0.15   0.04   0.10    -0.18   0.22  -0.02    -0.08  -0.07   0.28
     2   6     0.17   0.01   0.16     0.09   0.27  -0.03    -0.00  -0.06  -0.18
     3   6    -0.05   0.30  -0.25     0.28   0.05  -0.03     0.05  -0.08  -0.10
     4   6    -0.15  -0.03   0.09     0.17  -0.22  -0.02     0.08   0.07   0.28
     5   6    -0.18   0.00   0.16    -0.09  -0.27  -0.03     0.00   0.06  -0.18
     6   6     0.05  -0.29  -0.26    -0.28  -0.05  -0.03    -0.05   0.08  -0.10
     7   6     0.12   0.24  -0.22     0.27  -0.09   0.02    -0.07  -0.07  -0.11
     8   6    -0.02   0.08   0.01     0.04  -0.28   0.03    -0.01  -0.06  -0.17
     9   6    -0.20   0.18   0.21    -0.22  -0.18   0.03     0.08  -0.08   0.27
    10   6    -0.12  -0.23  -0.23    -0.27   0.09   0.02     0.07   0.07  -0.11
    11   6     0.01  -0.08   0.01    -0.04   0.28   0.03     0.01   0.06  -0.17
    12   6     0.19  -0.17   0.22     0.22   0.19   0.03    -0.08   0.08   0.27
    13   6    -0.00  -0.04   0.04     0.01   0.04  -0.01     0.13   0.12  -0.08
    14   6    -0.02  -0.03   0.01     0.00  -0.05   0.01    -0.10   0.15  -0.08
    15   6    -0.00  -0.05   0.02    -0.03  -0.03   0.01     0.06  -0.05   0.16
    16   6     0.04  -0.05  -0.02     0.05   0.01  -0.02    -0.17  -0.03  -0.07
    17   6    -0.05  -0.06  -0.02    -0.03   0.03  -0.01    -0.07  -0.03   0.16
    18   6    -0.03   0.02  -0.04     0.04  -0.02   0.01     0.16  -0.05  -0.08
    19   6    -0.00   0.04   0.03     0.03   0.03   0.01    -0.06   0.05   0.16
    20   6    -0.03   0.05  -0.03    -0.04  -0.01  -0.02     0.17   0.03  -0.07
    21   6    -0.01   0.02   0.04    -0.01  -0.05  -0.01    -0.13  -0.12  -0.08
    22   6     0.04   0.01   0.02    -0.00   0.05   0.01     0.10  -0.15  -0.08
    23   6     0.05  -0.02  -0.04    -0.04   0.02   0.01    -0.16   0.05  -0.08
    24   6     0.05   0.03  -0.01     0.03  -0.03  -0.01     0.07   0.03   0.16
                     25                     26                     27
                      A                      A                      A
 Frequencies --    731.5991               742.0057               744.5778
 Red. masses --     12.0000                12.0000                12.0000
 Frc consts  --      3.7842                 3.8927                 3.9197
 IR Inten    --      0.0006                 0.0000                 0.1997
  Atom  AN      X      Y      Z        X      Y      Z        X      Y      Z
     1   6    -0.02   0.06   0.04    -0.06  -0.11  -0.02    -0.21   0.08  -0.06
     2   6    -0.13   0.02   0.22     0.22  -0.08   0.15     0.10   0.12   0.08
     3   6    -0.02  -0.10  -0.25     0.03   0.14  -0.15     0.23  -0.11   0.10
     4   6     0.02  -0.06   0.04     0.06   0.11  -0.02     0.21  -0.08  -0.06
     5   6     0.13  -0.02   0.22    -0.22   0.08   0.15    -0.10  -0.12   0.08
     6   6     0.02   0.10  -0.25    -0.03  -0.14  -0.15    -0.23   0.11   0.10
     7   6    -0.01   0.09   0.25    -0.08  -0.06   0.00    -0.12   0.21  -0.14
     8   6    -0.12  -0.00  -0.23    -0.15  -0.07   0.15    -0.13   0.18   0.02
     9   6    -0.02  -0.07  -0.04     0.14  -0.18  -0.13     0.10   0.11   0.05
    10   6     0.01  -0.09   0.25     0.08   0.06   0.00     0.12  -0.21  -0.14
    11   6     0.12   0.00  -0.23     0.15   0.07   0.15     0.13  -0.18   0.02
    12   6     0.02   0.07  -0.04    -0.14   0.18  -0.13    -0.10  -0.11   0.05
    13   6     0.00   0.12   0.14    -0.18   0.17  -0.07    -0.04  -0.06  -0.01
    14   6    -0.02  -0.11  -0.14     0.19   0.14  -0.04     0.09  -0.06  -0.05
    15   6     0.13   0.15  -0.00    -0.20   0.11   0.07     0.02  -0.13  -0.01
    16   6     0.10  -0.06  -0.14    -0.07  -0.21   0.03    -0.09   0.01  -0.05
    17   6     0.10  -0.17   0.01    -0.00   0.00   0.04     0.28  -0.00   0.04
    18   6     0.11   0.04   0.15     0.02  -0.04  -0.03     0.12  -0.20   0.03
    19   6    -0.13  -0.15  -0.00     0.20  -0.11   0.07    -0.02   0.13  -0.01
    20   6    -0.10   0.06  -0.14     0.07   0.21   0.03     0.09  -0.01  -0.05
    21   6    -0.00  -0.12   0.14     0.18  -0.17  -0.07     0.04   0.06  -0.01
    22   6     0.02   0.11  -0.14    -0.19  -0.14  -0.04    -0.09   0.06  -0.05
    23   6    -0.11  -0.04   0.15    -0.02   0.04  -0.03    -0.12   0.20   0.03
    24   6    -0.10   0.17   0.01     0.00  -0.00   0.04    -0.29   0.00   0.03
                     28                     29                     30
                      A                      A                      A
 Frequencies --    745.5144               746.0266               747.0226
 Red. masses --     12.0000                12.0000                12.0000
 Frc consts  --      3.9296                 3.9350                 3.9455
 IR Inten    --      0.0353                 0.0218                 0.0082
  Atom  AN      X      Y      Z        X      Y      Z        X      Y      Z
     1   6     0.08  -0.05   0.08    -0.10  -0.23  -0.21     0.10   0.01  -0.08
     2   6     0.07  -0.14   0.16    -0.10  -0.14  -0.05    -0.08   0.07   0.07
     3   6    -0.06  -0.15   0.16    -0.09  -0.08  -0.02    -0.03  -0.11  -0.07
     4   6    -0.08   0.05   0.07     0.09   0.23  -0.21     0.11   0.03   0.06
     5   6    -0.07   0.14   0.16     0.11   0.13  -0.04    -0.07   0.09  -0.07
     6   6     0.06   0.15   0.15     0.09   0.08  -0.03    -0.03  -0.10   0.08
     7   6     0.17   0.12  -0.20     0.13   0.06  -0.06    -0.01   0.11   0.07
     8   6     0.07  -0.11  -0.11    -0.15  -0.10   0.13    -0.09  -0.07  -0.07
     9   6    -0.05  -0.17  -0.12    -0.18  -0.01   0.15     0.09  -0.04   0.08
    10   6    -0.17  -0.12  -0.20    -0.13  -0.07  -0.05    -0.02   0.11  -0.07
    11   6    -0.07   0.11  -0.11     0.16   0.11   0.13    -0.08  -0.06   0.08
    12   6     0.05   0.17  -0.12     0.17   0.02   0.16     0.11  -0.04  -0.07
    13   6     0.14   0.03   0.01    -0.14   0.17  -0.00    -0.04   0.12   0.23
    14   6     0.20   0.13  -0.01    -0.04   0.09  -0.02    -0.06  -0.10  -0.23
    15   6     0.21  -0.11   0.00     0.10   0.06  -0.00     0.12   0.01   0.23
    16   6     0.09  -0.11  -0.00     0.08   0.23  -0.03    -0.07  -0.08  -0.23
    17   6     0.16   0.17   0.03     0.04   0.04   0.06     0.11  -0.02  -0.23
    18   6    -0.01   0.12   0.02    -0.08  -0.26   0.04    -0.06   0.09   0.23
    19   6    -0.21   0.11   0.00    -0.10  -0.06   0.02     0.11   0.01  -0.23
    20   6    -0.09   0.12  -0.00    -0.07  -0.23  -0.05    -0.08  -0.09   0.23
    21   6    -0.13  -0.03   0.01     0.14  -0.18   0.02    -0.03   0.10  -0.23
    22   6    -0.20  -0.13  -0.01     0.05  -0.09  -0.03    -0.06  -0.10   0.23
    23   6     0.01  -0.12   0.02     0.08   0.25   0.06    -0.05   0.10  -0.23
    24   6    -0.16  -0.17   0.03    -0.05  -0.04   0.04     0.11  -0.03   0.23
                     31                     32                     33
                      A                      A                      A
 Frequencies --    771.8997               795.6240               825.4892
 Red. masses --     12.0000                12.0000                12.0000
 Frc consts  --      4.2126                 4.4756                 4.8179
 IR Inten    --      0.0034                 1.2600                19.6910
  Atom  AN      X      Y      Z        X      Y      Z        X      Y      Z
     1   6    -0.05  -0.10   0.07     0.14   0.08   0.16     0.06  -0.10  -0.08
     2   6     0.11   0.01  -0.08     0.14  -0.08   0.17    -0.01  -0.02  -0.22
     3   6    -0.06   0.09   0.08     0.00  -0.16   0.16     0.09   0.00  -0.14
     4   6    -0.05  -0.10  -0.08    -0.14  -0.08   0.16     0.06  -0.10   0.08
     5   6     0.11   0.01   0.07    -0.14   0.08   0.17    -0.01  -0.02   0.22
     6   6    -0.06   0.09  -0.08    -0.00   0.16   0.16     0.09   0.00   0.14
     7   6     0.08   0.08   0.07    -0.03  -0.15   0.16     0.11  -0.02  -0.06
     8   6    -0.10   0.03  -0.07    -0.15  -0.05   0.16     0.03  -0.08   0.16
     9   6     0.02  -0.11   0.08    -0.12   0.10   0.16     0.02   0.03   0.21
    10   6     0.08   0.07  -0.07     0.03   0.15   0.16     0.11  -0.02   0.06
    11   6    -0.10   0.03   0.07     0.15   0.05   0.16     0.03  -0.08  -0.16
    12   6     0.02  -0.11  -0.08     0.12  -0.10   0.17     0.02   0.03  -0.21
    13   6     0.11   0.08  -0.22     0.07  -0.01  -0.16    -0.24   0.11   0.01
    14   6    -0.10   0.09  -0.22    -0.07   0.00  -0.16    -0.19  -0.18   0.01
    15   6    -0.04  -0.13   0.22    -0.03   0.06  -0.16    -0.16   0.20  -0.01
    16   6    -0.12   0.06   0.22     0.02  -0.07  -0.16     0.12   0.22  -0.00
    17   6     0.01  -0.14   0.22     0.05   0.05  -0.16     0.03  -0.15   0.01
    18   6     0.13   0.04   0.22    -0.03  -0.07  -0.16     0.15  -0.02   0.01
    19   6    -0.04  -0.13  -0.22     0.03  -0.06  -0.16    -0.16   0.20   0.01
    20   6    -0.12   0.06  -0.22    -0.02   0.07  -0.16     0.12   0.22   0.00
    21   6     0.11   0.08   0.22    -0.07   0.01  -0.16    -0.24   0.11  -0.01
    22   6    -0.10   0.09   0.22     0.07  -0.00  -0.16    -0.19  -0.18  -0.01
    23   6     0.13   0.04  -0.22     0.03   0.06  -0.16     0.15  -0.02  -0.00
    24   6     0.01  -0.14  -0.22    -0.05  -0.05  -0.16     0.03  -0.15  -0.01
                     34                     35                     36
                      A                      A                      A
 Frequencies --    825.7183               919.6922               921.7038
 Red. masses --     12.0000                12.0000                12.0000
 Frc consts  --      4.8205                 5.9802                 6.0064
 IR Inten    --     20.0182                33.2208                33.1833
  Atom  AN      X      Y      Z        X      Y      Z        X      Y      Z
     1   6    -0.03   0.04  -0.21     0.10  -0.06  -0.09     0.01   0.07  -0.24
     2   6     0.06   0.10  -0.03     0.06  -0.04  -0.25     0.03   0.11  -0.04
     3   6     0.07   0.00   0.18     0.10  -0.01  -0.15     0.06   0.08   0.20
     4   6    -0.02   0.04   0.21     0.10  -0.06   0.09     0.02   0.07   0.24
     5   6     0.06   0.10   0.03     0.07  -0.04   0.25     0.03   0.11   0.04
     6   6     0.07  -0.00  -0.18     0.10  -0.01   0.15     0.06   0.08  -0.20
     7   6     0.03  -0.01   0.22    -0.10   0.06   0.01    -0.03  -0.06  -0.25
     8   6    -0.03   0.08   0.16    -0.06   0.05  -0.22    -0.04  -0.11  -0.13
     9   6     0.07   0.09  -0.05    -0.09   0.02  -0.22    -0.07  -0.08   0.12
    10   6     0.03  -0.01  -0.22    -0.10   0.06  -0.01    -0.03  -0.06   0.25
    11   6    -0.03   0.08  -0.16    -0.06   0.05   0.22    -0.03  -0.11   0.13
    12   6     0.07   0.09   0.05    -0.09   0.02   0.22    -0.07  -0.08  -0.12
    13   6    -0.01   0.18  -0.01    -0.09   0.04   0.27     0.00  -0.02  -0.01
    14   6    -0.18   0.06  -0.01     0.07   0.02   0.20     0.07   0.03   0.18
    15   6     0.19   0.02  -0.01     0.08  -0.06   0.25    -0.01   0.02  -0.09
    16   6     0.10  -0.18  -0.01    -0.01   0.03   0.13    -0.00  -0.09  -0.24
    17   6    -0.26  -0.10  -0.00    -0.06  -0.02   0.14    -0.07  -0.05   0.23
    18   6    -0.02  -0.28  -0.00     0.01  -0.03  -0.05     0.02   0.09   0.27
    19   6     0.19   0.03   0.01     0.08  -0.06  -0.25    -0.01   0.02   0.09
    20   6     0.10  -0.18   0.01    -0.01   0.03  -0.13    -0.00  -0.09   0.24
    21   6    -0.01   0.18   0.01    -0.09   0.04  -0.27     0.01  -0.02   0.01
    22   6    -0.18   0.06   0.01     0.07   0.02  -0.20     0.07   0.03  -0.18
    23   6    -0.02  -0.28   0.00     0.01  -0.03   0.05     0.02   0.09  -0.27
    24   6    -0.26  -0.10   0.00    -0.06  -0.02  -0.14    -0.07  -0.05  -0.23
                     37                     38                     39
                      A                      A                      A
 Frequencies --   1008.3566              1009.7651              1019.3471
 Red. masses --     12.0000                12.0000                12.0000
 Frc consts  --      7.1889                 7.2090                 7.3464
 IR Inten    --      0.0330                 0.0016                 0.0161
  Atom  AN      X      Y      Z        X      Y      Z        X      Y      Z
     1   6     0.00  -0.09   0.08    -0.15  -0.09   0.24    -0.03   0.11  -0.08
     2   6     0.18  -0.06  -0.25     0.01  -0.08  -0.07    -0.12   0.03   0.20
     3   6     0.05   0.12   0.17     0.07  -0.12  -0.17    -0.08  -0.06  -0.11
     4   6    -0.00   0.09   0.09     0.15   0.09   0.25     0.03  -0.11  -0.08
     5   6    -0.18   0.06  -0.25    -0.01   0.08  -0.07     0.12  -0.03   0.20
     6   6    -0.05  -0.12   0.17    -0.07   0.12  -0.17     0.08   0.06  -0.11
     7   6     0.02   0.17   0.24     0.09   0.03   0.07     0.03   0.12   0.21
     8   6    -0.15   0.01  -0.20     0.11   0.08   0.18    -0.09   0.08  -0.12
     9   6    -0.08  -0.03  -0.05    -0.11   0.15  -0.26    -0.10  -0.05  -0.07
    10   6    -0.02  -0.17   0.24    -0.09  -0.03   0.07    -0.03  -0.12   0.21
    11   6     0.15  -0.01  -0.20    -0.11  -0.08   0.18     0.09  -0.08  -0.12
    12   6     0.08   0.03  -0.05     0.11  -0.15  -0.26     0.10   0.04  -0.08
    13   6    -0.09  -0.02   0.22     0.02   0.04   0.08     0.13  -0.13  -0.11
    14   6     0.09  -0.04   0.15    -0.03  -0.02  -0.18     0.06   0.23   0.07
    15   6     0.01   0.04   0.07     0.03  -0.08   0.21    -0.10  -0.17   0.03
    16   6     0.00  -0.02  -0.17    -0.06   0.05   0.14    -0.17   0.07   0.05
    17   6     0.01   0.07  -0.04     0.04   0.04  -0.22    -0.20   0.14   0.05
    18   6    -0.04  -0.04  -0.22    -0.05  -0.02  -0.04    -0.03  -0.17  -0.11
    19   6    -0.01  -0.04   0.07    -0.03   0.08   0.22     0.10   0.17   0.03
    20   6    -0.00   0.02  -0.17     0.06  -0.05   0.14     0.17  -0.07   0.06
    21   6     0.09   0.02   0.22    -0.02  -0.04   0.09    -0.13   0.13  -0.11
    22   6    -0.09   0.04   0.15     0.03   0.02  -0.18    -0.06  -0.23   0.07
    23   6     0.04   0.04  -0.22     0.05   0.02  -0.04     0.03   0.17  -0.11
    24   6    -0.01  -0.07  -0.04    -0.04  -0.04  -0.22     0.20  -0.14   0.05
                     40                     41                     42
                      A                      A                      A
 Frequencies --   1020.1304              1043.6996              1058.2799
 Red. masses --     12.0000                12.0000                12.0000
 Frc consts  --      7.3577                 7.7016                 7.9183
 IR Inten    --      0.0013                12.8451                 0.0001
  Atom  AN      X      Y      Z        X      Y      Z        X      Y      Z
     1   6    -0.12  -0.03   0.18    -0.18  -0.16   0.10     0.21   0.15  -0.08
     2   6    -0.06  -0.10   0.01    -0.22   0.08   0.09     0.24  -0.10  -0.08
     3   6     0.08  -0.10  -0.18    -0.04   0.24   0.11     0.03  -0.26  -0.09
     4   6     0.12   0.03   0.18     0.18   0.16   0.10    -0.20  -0.15  -0.08
     5   6     0.06   0.10   0.00     0.22  -0.08   0.09    -0.24   0.11  -0.08
     6   6    -0.08   0.10  -0.18     0.04  -0.24   0.11    -0.03   0.26  -0.09
     7   6    -0.12  -0.00  -0.05     0.09   0.23   0.10     0.08   0.25   0.08
     8   6    -0.06  -0.08  -0.14     0.24   0.04   0.10     0.25   0.06   0.08
     9   6     0.04  -0.11   0.18     0.15  -0.19   0.10     0.17  -0.19   0.08
    10   6     0.12   0.00  -0.05    -0.09  -0.23   0.10    -0.07  -0.25   0.08
    11   6     0.06   0.08  -0.14    -0.24  -0.04   0.10    -0.25  -0.06   0.08
    12   6    -0.04   0.11   0.18    -0.15   0.19   0.10    -0.18   0.19   0.08
    13   6    -0.09  -0.21  -0.01     0.05  -0.01  -0.10    -0.07   0.05  -0.05
    14   6     0.14  -0.07   0.06    -0.06  -0.02  -0.10    -0.08  -0.04   0.05
    15   6    -0.21   0.02  -0.10    -0.03   0.06  -0.10    -0.07   0.04   0.05
    16   6     0.16   0.17   0.11     0.02  -0.06  -0.11     0.01   0.09  -0.04
    17   6     0.09   0.13  -0.10     0.05   0.04  -0.10    -0.08  -0.03  -0.05
    18   6    -0.22   0.10   0.04    -0.03  -0.05  -0.11    -0.01  -0.08   0.05
    19   6     0.21  -0.02  -0.10     0.03  -0.06  -0.10     0.07  -0.04   0.05
    20   6    -0.16  -0.17   0.11    -0.02   0.06  -0.11    -0.01  -0.09  -0.04
    21   6     0.09   0.21  -0.01    -0.05   0.01  -0.10     0.07  -0.05  -0.05
    22   6    -0.14   0.07   0.06     0.06   0.02  -0.10     0.07   0.04   0.05
    23   6     0.22  -0.10   0.04     0.03   0.05  -0.11     0.01   0.08   0.05
    24   6    -0.09  -0.13  -0.10    -0.05  -0.04  -0.10     0.08   0.03  -0.05
                     43                     44                     45
                      A                      A                      A
 Frequencies --   1103.2229              1108.3420              1142.0093
 Red. masses --     12.0000                12.0000                12.0000
 Frc consts  --      8.6051                 8.6852                 9.2208
 IR Inten    --      0.0007                 0.0018                 0.0041
  Atom  AN      X      Y      Z        X      Y      Z        X      Y      Z
     1   6    -0.23   0.00   0.13    -0.08  -0.21   0.16     0.02   0.01  -0.06
     2   6     0.12  -0.19  -0.13     0.22   0.03  -0.16    -0.02   0.03   0.04
     3   6     0.11   0.19   0.13    -0.14   0.18   0.16    -0.01  -0.02   0.01
     4   6    -0.23   0.00  -0.13    -0.08  -0.21  -0.16    -0.02  -0.01  -0.06
     5   6     0.12  -0.19   0.13     0.22   0.03   0.16     0.02  -0.03   0.04
     6   6     0.11   0.20  -0.13    -0.14   0.18  -0.16     0.01   0.01   0.02
     7   6    -0.05   0.23   0.15    -0.18  -0.12  -0.14     0.00   0.00   0.05
     8   6    -0.17  -0.16  -0.15     0.19  -0.09   0.14     0.02   0.02   0.00
     9   6     0.23  -0.07   0.15    -0.02   0.21  -0.14    -0.03   0.01  -0.06
    10   6    -0.05   0.23  -0.15    -0.18  -0.13   0.14    -0.00  -0.00   0.05
    11   6    -0.17  -0.16   0.15     0.19  -0.09  -0.14    -0.02  -0.02   0.00
    12   6     0.23  -0.07  -0.15    -0.02   0.21   0.14     0.03  -0.01  -0.06
    13   6    -0.08  -0.01   0.06    -0.04   0.09   0.06     0.03   0.07  -0.21
    14   6     0.08  -0.01   0.06    -0.05  -0.08  -0.05    -0.05  -0.09  -0.03
    15   6    -0.03   0.08  -0.06     0.10  -0.00   0.05    -0.14  -0.08   0.28
    16   6     0.05  -0.06  -0.06    -0.06  -0.08  -0.06     0.15   0.11  -0.08
    17   6     0.03   0.07  -0.06     0.10  -0.01  -0.06     0.21  -0.14   0.29
    18   6    -0.05  -0.07  -0.06    -0.05   0.08   0.05    -0.20   0.17  -0.25
    19   6    -0.03   0.08   0.07     0.10  -0.00  -0.05     0.14   0.08   0.28
    20   6     0.04  -0.06   0.06    -0.06  -0.08   0.06    -0.15  -0.11  -0.08
    21   6    -0.08  -0.01  -0.06    -0.04   0.09  -0.06    -0.03  -0.07  -0.21
    22   6     0.08  -0.01  -0.06    -0.05  -0.08   0.05     0.04   0.09  -0.03
    23   6    -0.05  -0.07   0.06    -0.05   0.08  -0.05     0.20  -0.17  -0.25
    24   6     0.03   0.07   0.06     0.10  -0.01   0.06    -0.21   0.14   0.29
                     46                     47                     48
                      A                      A                      A
 Frequencies --   1143.7808              1174.3497              1187.6759
 Red. masses --     12.0000                12.0000                12.0000
 Frc consts  --      9.2495                 9.7505                 9.9730
 IR Inten    --      0.0000                 0.0049                 0.2854
  Atom  AN      X      Y      Z        X      Y      Z        X      Y      Z
     1   6     0.03   0.00  -0.02    -0.07   0.00   0.04    -0.19   0.13   0.04
     2   6     0.00   0.00  -0.04     0.04  -0.06  -0.04     0.18   0.06  -0.00
     3   6     0.01   0.03   0.06     0.02   0.06   0.04    -0.04  -0.22  -0.04
     4   6    -0.03  -0.00  -0.02    -0.07   0.00  -0.04    -0.19   0.13  -0.03
     5   6    -0.00  -0.01  -0.04     0.04  -0.06   0.04     0.18   0.06   0.00
     6   6    -0.01  -0.03   0.06     0.02   0.06  -0.04    -0.04  -0.22   0.04
     7   6     0.01  -0.03  -0.03     0.03  -0.07  -0.04     0.10   0.17   0.01
     8   6     0.02   0.01   0.06     0.04   0.04   0.04     0.07  -0.19  -0.02
     9   6     0.02  -0.00  -0.02    -0.07   0.02  -0.04    -0.23   0.02  -0.05
    10   6    -0.01   0.03  -0.03     0.03  -0.07   0.04     0.10   0.17  -0.01
    11   6    -0.02  -0.01   0.06     0.04   0.04  -0.04     0.07  -0.19   0.02
    12   6    -0.02   0.00  -0.02    -0.07   0.02   0.04    -0.23   0.02   0.05
    13   6     0.00  -0.26   0.21    -0.04  -0.23   0.15     0.06   0.17  -0.16
    14   6     0.02   0.24  -0.30     0.01   0.23  -0.14     0.05  -0.19   0.19
    15   6    -0.20  -0.06   0.13    -0.20  -0.11   0.14    -0.03  -0.06   0.09
    16   6     0.18   0.07  -0.29     0.21   0.08  -0.14     0.01   0.02   0.01
    17   6    -0.07   0.00   0.07    -0.19   0.15  -0.16    -0.07   0.13  -0.16
    18   6     0.05   0.00   0.18     0.21  -0.13   0.16     0.10  -0.05   0.10
    19   6     0.20   0.05   0.12    -0.20  -0.11  -0.14    -0.03  -0.06  -0.09
    20   6    -0.17  -0.07  -0.29     0.21   0.08   0.14     0.01   0.02  -0.01
    21   6    -0.01   0.25   0.21    -0.04  -0.23  -0.15     0.06   0.17   0.16
    22   6    -0.02  -0.24  -0.30     0.01   0.23   0.15     0.05  -0.19  -0.19
    23   6    -0.05  -0.01   0.18     0.21  -0.12  -0.16     0.10  -0.05  -0.10
    24   6     0.07  -0.00   0.08    -0.19   0.15   0.15    -0.07   0.13   0.16
                     49                     50                     51
                      A                      A                      A
 Frequencies --   1188.4045              1205.4619              1222.8229
 Red. masses --     12.0000                12.0000                12.0000
 Frc consts  --      9.9853                10.2740                10.5720
 IR Inten    --      0.2712                 0.0007                 0.0009
  Atom  AN      X      Y      Z        X      Y      Z        X      Y      Z
     1   6     0.14   0.15  -0.02     0.11  -0.23   0.10    -0.20   0.16   0.07
     2   6     0.08  -0.22  -0.04     0.15   0.20  -0.10    -0.04  -0.25  -0.07
     3   6    -0.20   0.01  -0.03    -0.26   0.02   0.10     0.24   0.09   0.07
     4   6     0.14   0.16   0.02     0.11  -0.22  -0.10    -0.20   0.16  -0.07
     5   6     0.08  -0.22   0.04     0.15   0.20   0.10    -0.04  -0.24   0.07
     6   6    -0.20   0.01   0.03    -0.26   0.02  -0.10     0.24   0.09  -0.07
     7   6     0.17  -0.14  -0.04     0.25  -0.01   0.10     0.22  -0.13  -0.06
     8   6    -0.20  -0.12  -0.03    -0.11   0.20  -0.10    -0.00   0.26   0.07
     9   6     0.02   0.20   0.00    -0.15  -0.20   0.10    -0.22  -0.13  -0.06
    10   6     0.17  -0.14   0.04     0.25  -0.01  -0.10     0.22  -0.13   0.06
    11   6    -0.20  -0.12   0.03    -0.11   0.20   0.10    -0.00   0.26  -0.07
    12   6     0.02   0.20  -0.00    -0.15  -0.20  -0.10    -0.22  -0.13   0.06
    13   6    -0.05  -0.05   0.09     0.00  -0.05   0.10     0.02   0.09   0.06
    14   6     0.02   0.03  -0.01    -0.01  -0.05   0.10     0.01  -0.10  -0.06
    15   6     0.14   0.12  -0.17     0.05   0.02  -0.11     0.09   0.06   0.04
    16   6    -0.20  -0.02   0.20     0.04   0.03  -0.09    -0.10  -0.03  -0.05
    17   6    -0.07   0.07  -0.08    -0.05   0.03  -0.10     0.07  -0.08  -0.05
    18   6     0.14  -0.03   0.16    -0.03   0.03  -0.09    -0.10   0.05   0.05
    19   6     0.14   0.12   0.17     0.05   0.02   0.10     0.09   0.06  -0.04
    20   6    -0.20  -0.02  -0.20     0.04   0.03   0.09    -0.10  -0.03   0.05
    21   6    -0.05  -0.05  -0.09     0.00  -0.05  -0.10     0.02   0.09  -0.06
    22   6     0.02   0.03   0.01    -0.01  -0.05  -0.10     0.01  -0.10   0.06
    23   6     0.14  -0.03  -0.16    -0.03   0.03   0.09    -0.10   0.05  -0.05
    24   6    -0.07   0.07   0.08    -0.05   0.03   0.10     0.07  -0.08   0.05
                     52                     53                     54
                      A                      A                      A
 Frequencies --   1267.7117              1269.0075              1280.1265
 Red. masses --     12.0000                12.0000                12.0000
 Frc consts  --     11.3625                11.3857                11.5861
 IR Inten    --      0.2771                 0.1686                22.9101
  Atom  AN      X      Y      Z        X      Y      Z        X      Y      Z
     1   6    -0.22   0.18   0.00    -0.15  -0.22   0.06    -0.14   0.11  -0.01
     2   6     0.25   0.13  -0.05    -0.09   0.26   0.04     0.17   0.12  -0.05
     3   6    -0.05  -0.26  -0.05     0.29  -0.03  -0.02     0.01  -0.16  -0.05
     4   6    -0.22   0.18  -0.00    -0.15  -0.22  -0.06    -0.14   0.11   0.01
     5   6     0.25   0.13   0.05    -0.09   0.26  -0.04     0.17   0.12   0.05
     6   6    -0.05  -0.26   0.05     0.30  -0.03   0.02     0.02  -0.16   0.05
     7   6    -0.07  -0.24  -0.05     0.28  -0.09   0.01    -0.05   0.16   0.03
     8   6    -0.18   0.22  -0.04    -0.18  -0.19  -0.04     0.18  -0.09   0.06
     9   6     0.27   0.08   0.02    -0.04   0.26  -0.05    -0.14  -0.15   0.03
    10   6    -0.07  -0.24   0.05     0.28  -0.09  -0.01    -0.05   0.16  -0.03
    11   6    -0.18   0.22   0.04    -0.18  -0.19   0.04     0.18  -0.10  -0.06
    12   6     0.27   0.08  -0.02    -0.04   0.26   0.05    -0.14  -0.15  -0.03
    13   6    -0.03  -0.06  -0.00     0.02  -0.05   0.07    -0.05  -0.10   0.28
    14   6     0.01  -0.06  -0.01     0.03   0.03  -0.07    -0.03   0.11  -0.25
    15   6    -0.07  -0.01   0.06    -0.03  -0.04  -0.03     0.07   0.06  -0.24
    16   6     0.01   0.04  -0.07    -0.07  -0.02   0.03    -0.06  -0.01   0.13
    17   6     0.07  -0.04   0.06    -0.00   0.04   0.04     0.03  -0.04   0.16
    18   6     0.02   0.03  -0.07    -0.06   0.04  -0.03    -0.01   0.00  -0.00
    19   6    -0.07  -0.01  -0.06    -0.03  -0.04   0.03     0.07   0.06   0.24
    20   6     0.01   0.04   0.07    -0.07  -0.02  -0.03    -0.06  -0.01  -0.13
    21   6    -0.03  -0.06   0.00     0.02  -0.05  -0.07    -0.04  -0.10  -0.28
    22   6     0.01  -0.06   0.01     0.03   0.03   0.07    -0.03   0.11   0.25
    23   6     0.02   0.03   0.07    -0.06   0.04   0.03    -0.01   0.00   0.00
    24   6     0.07  -0.04  -0.06    -0.00   0.04  -0.04     0.03  -0.04  -0.16
                     55                     56                     57
                      A                      A                      A
 Frequencies --   1281.6767              1339.2179              1450.4310
 Red. masses --     12.0000                12.0000                12.0000
 Frc consts  --     11.6142                12.6804                14.8739
 IR Inten    --     22.9496                 0.0002                 0.0019
  Atom  AN      X      Y      Z        X      Y      Z        X      Y      Z
     1   6    -0.07  -0.17   0.06     0.01   0.05  -0.04    -0.20   0.32  -0.02
     2   6    -0.06   0.14   0.02     0.05   0.02  -0.04    -0.00  -0.29  -0.03
     3   6     0.21  -0.02  -0.04     0.04  -0.04  -0.04    -0.12   0.13   0.05
     4   6    -0.07  -0.17  -0.06    -0.01  -0.05  -0.04     0.20  -0.32  -0.02
     5   6    -0.06   0.14  -0.02    -0.05  -0.02  -0.04     0.00   0.29  -0.03
     6   6     0.21  -0.02   0.04    -0.04   0.04  -0.04     0.12  -0.13   0.05
     7   6    -0.21  -0.05  -0.05     0.04   0.03   0.04     0.08   0.11   0.04
     8   6     0.02   0.19  -0.00     0.05  -0.02   0.04    -0.02  -0.29  -0.02
     9   6     0.11  -0.14   0.05     0.00  -0.06   0.04     0.21   0.25  -0.02
    10   6    -0.21  -0.05   0.05    -0.04  -0.03   0.04    -0.08  -0.11   0.04
    11   6     0.02   0.19   0.00    -0.05   0.02   0.04     0.02   0.29  -0.02
    12   6     0.11  -0.14  -0.05    -0.00   0.06   0.04    -0.21  -0.25  -0.02
    13   6     0.00   0.00   0.02    -0.06  -0.13   0.24    -0.02  -0.04  -0.07
    14   6     0.01  -0.05   0.14    -0.04   0.14  -0.24     0.01  -0.05  -0.08
    15   6     0.05   0.05  -0.14     0.10   0.10  -0.24     0.04   0.05   0.05
    16   6    -0.10  -0.01   0.25    -0.15  -0.01   0.24    -0.03   0.01   0.01
    17   6    -0.05   0.08  -0.23     0.08  -0.12   0.24    -0.03   0.06   0.06
    18   6     0.11  -0.03   0.28    -0.14   0.04  -0.24     0.01   0.01   0.03
    19   6     0.05   0.05   0.14    -0.10  -0.10  -0.24    -0.04  -0.05   0.05
    20   6    -0.10  -0.01  -0.25     0.15   0.01   0.24     0.03  -0.01   0.01
    21   6     0.00   0.00  -0.02     0.06   0.13   0.24     0.02   0.04  -0.07
    22   6     0.01  -0.05  -0.14     0.04  -0.14  -0.24    -0.01   0.05  -0.08
    23   6     0.11  -0.03  -0.28     0.14  -0.04  -0.24    -0.01  -0.01   0.03
    24   6    -0.05   0.08   0.23    -0.08   0.12   0.24     0.03  -0.06   0.06
                     58                     59                     60
                      A                      A                      A
 Frequencies --   1451.7604              1464.6512              1465.9393
 Red. masses --     12.0000                12.0000                12.0000
 Frc consts  --     14.9012                15.1670                15.1937
 IR Inten    --      0.0001                 0.0004                 0.0042
  Atom  AN      X      Y      Z        X      Y      Z        X      Y      Z
     1   6     0.18  -0.01  -0.04     0.16  -0.28   0.02     0.18   0.01  -0.05
     2   6    -0.19  -0.18   0.04     0.01   0.29   0.03    -0.19  -0.19   0.04
     3   6     0.35   0.08  -0.00     0.07  -0.13  -0.06     0.35   0.09   0.01
     4   6    -0.18   0.01  -0.04    -0.16   0.28   0.02    -0.18  -0.01  -0.05
     5   6     0.19   0.18   0.04    -0.01  -0.29   0.03     0.19   0.20   0.04
     6   6    -0.35  -0.08  -0.00    -0.07   0.13  -0.06    -0.35  -0.10   0.01
     7   6     0.35  -0.12   0.01     0.05   0.15   0.06    -0.34   0.14   0.00
     8   6    -0.16   0.17  -0.04    -0.02  -0.35  -0.03     0.16  -0.18   0.05
     9   6     0.21   0.02   0.03     0.20   0.27  -0.03    -0.21  -0.00  -0.05
    10   6    -0.35   0.12   0.01    -0.05  -0.15   0.06     0.34  -0.14   0.00
    11   6     0.16  -0.16  -0.04     0.02   0.35  -0.03    -0.16   0.18   0.05
    12   6    -0.21  -0.02   0.03    -0.20  -0.27  -0.03     0.21   0.00  -0.05
    13   6    -0.04  -0.04  -0.03    -0.02  -0.06  -0.04    -0.01   0.01  -0.02
    14   6    -0.02   0.04   0.02    -0.00   0.05   0.03     0.02  -0.01  -0.03
    15   6     0.02   0.01   0.06    -0.02   0.00   0.01     0.04   0.04   0.04
    16   6     0.06  -0.00   0.08     0.03  -0.01   0.03    -0.05  -0.02  -0.02
    17   6     0.01  -0.00  -0.05    -0.03   0.01   0.01    -0.03   0.04   0.04
    18   6     0.07  -0.01  -0.08     0.04  -0.00  -0.03     0.04  -0.03  -0.01
    19   6    -0.02  -0.01   0.06     0.02  -0.00   0.01    -0.04  -0.04   0.04
    20   6    -0.06   0.00   0.08    -0.03   0.01   0.03     0.05   0.02  -0.02
    21   6     0.04   0.04  -0.03     0.02   0.06  -0.04     0.02  -0.01  -0.02
    22   6     0.02  -0.04   0.02     0.00  -0.05   0.03    -0.02   0.01  -0.03
    23   6    -0.07   0.01  -0.08    -0.04   0.00  -0.03    -0.04   0.03  -0.01
    24   6    -0.01   0.00  -0.05     0.03  -0.02   0.01     0.03  -0.04   0.04
                     61                     62                     63
                      A                      A                      A
 Frequencies --   1527.1117              1528.9365              1534.2662
 Red. masses --     12.0000                12.0000                12.0000
 Frc consts  --     16.4882                16.5276                16.6430
 IR Inten    --      0.0045                 0.0075                 0.0031
  Atom  AN      X      Y      Z        X      Y      Z        X      Y      Z
     1   6    -0.06   0.03   0.02    -0.01   0.05  -0.01     0.02  -0.01   0.00
     2   6     0.04   0.06   0.00     0.02  -0.04  -0.02    -0.00   0.01  -0.00
     3   6     0.01  -0.03  -0.02    -0.07  -0.02  -0.01    -0.01  -0.01   0.01
     4   6    -0.06   0.03  -0.02    -0.01   0.05   0.01     0.02  -0.01  -0.00
     5   6     0.04   0.06  -0.00     0.02  -0.04   0.02    -0.00   0.01   0.00
     6   6     0.01  -0.03   0.02    -0.07  -0.02   0.02    -0.01  -0.01  -0.00
     7   6     0.03   0.03   0.02     0.07  -0.03  -0.02     0.01  -0.01   0.00
     8   6     0.02  -0.07  -0.01    -0.03  -0.03  -0.02     0.00   0.02  -0.00
     9   6    -0.06  -0.02  -0.02     0.02   0.05  -0.01    -0.01  -0.00   0.01
    10   6     0.03   0.03  -0.02     0.07  -0.03   0.02     0.01  -0.01  -0.00
    11   6     0.02  -0.07   0.01    -0.03  -0.03   0.02     0.00   0.02   0.00
    12   6    -0.06  -0.02   0.02     0.02   0.05   0.01    -0.01  -0.00  -0.01
    13   6    -0.14  -0.28  -0.18     0.09   0.13   0.11    -0.13  -0.19  -0.13
    14   6    -0.09   0.29   0.18    -0.05   0.11   0.09     0.10  -0.24  -0.15
    15   6     0.18   0.21   0.17    -0.16  -0.15  -0.12     0.14   0.19   0.13
    16   6    -0.00  -0.02   0.01     0.34   0.01   0.20     0.25  -0.01   0.15
    17   6     0.14  -0.24  -0.18     0.11  -0.15  -0.10    -0.12   0.23   0.15
    18   6    -0.06   0.03   0.03    -0.33   0.07   0.20    -0.25   0.03   0.15
    19   6     0.18   0.21  -0.17    -0.16  -0.15   0.12     0.14   0.19  -0.13
    20   6    -0.00  -0.02  -0.01     0.34   0.01  -0.20     0.25  -0.01  -0.15
    21   6    -0.14  -0.28   0.18     0.09   0.13  -0.11    -0.13  -0.20   0.13
    22   6    -0.09   0.29  -0.18    -0.05   0.11  -0.09     0.10  -0.24   0.15
    23   6    -0.06   0.03  -0.03    -0.33   0.07  -0.20    -0.25   0.03  -0.14
    24   6     0.14  -0.24   0.17     0.11  -0.15   0.10    -0.12   0.23  -0.15
                     64                     65                     66
                      A                      A                      A
 Frequencies --   1541.0832              1541.8599              1563.0883
 Red. masses --     12.0000                12.0000                12.0000
 Frc consts  --     16.7913                16.8082                17.2742
 IR Inten    --      0.0053                 0.0073                 0.0002
  Atom  AN      X      Y      Z        X      Y      Z        X      Y      Z
     1   6    -0.05   0.01   0.02     0.06  -0.08  -0.00     0.02  -0.02  -0.01
     2   6     0.04   0.05  -0.01     0.01   0.08   0.02    -0.00  -0.03  -0.01
     3   6    -0.10  -0.03  -0.01     0.01  -0.03  -0.02    -0.04  -0.01  -0.01
     4   6     0.05  -0.01   0.02    -0.06   0.08  -0.00    -0.02   0.02  -0.01
     5   6    -0.04  -0.05  -0.01    -0.01  -0.08   0.02     0.00   0.03  -0.01
     6   6     0.10   0.03  -0.01    -0.01   0.03  -0.02     0.04   0.01  -0.01
     7   6    -0.06   0.00  -0.01     0.07  -0.05  -0.02    -0.03   0.02   0.01
     8   6     0.02   0.05   0.02    -0.02   0.09   0.00     0.00   0.03   0.01
     9   6    -0.09  -0.06  -0.01     0.01  -0.03   0.02     0.03   0.02   0.01
    10   6     0.06  -0.00  -0.01    -0.07   0.05  -0.02     0.03  -0.02   0.01
    11   6    -0.02  -0.05   0.02     0.02  -0.09   0.00    -0.00  -0.03   0.01
    12   6     0.09   0.06  -0.01    -0.01   0.03   0.02    -0.03  -0.02   0.01
    13   6    -0.15  -0.29  -0.17    -0.09  -0.11  -0.08     0.10   0.21   0.15
    14   6     0.01   0.04   0.01     0.11  -0.33  -0.19     0.06  -0.22  -0.15
    15   6     0.18   0.23   0.17     0.14   0.13   0.10    -0.17  -0.17  -0.15
    16   6     0.27  -0.01   0.15    -0.19  -0.02  -0.10     0.26   0.02   0.16
    17   6    -0.03   0.01   0.00    -0.18   0.30   0.19    -0.14   0.19   0.15
    18   6     0.29  -0.07  -0.16    -0.15   0.00   0.09     0.25  -0.07  -0.16
    19   6    -0.18  -0.23   0.17    -0.14  -0.13   0.10     0.17   0.17  -0.15
    20   6    -0.27   0.01   0.15     0.19   0.02  -0.10    -0.26  -0.02   0.16
    21   6     0.15   0.28  -0.17     0.09   0.11  -0.08    -0.10  -0.21   0.15
    22   6    -0.01  -0.04   0.01    -0.11   0.33  -0.19    -0.06   0.23  -0.15
    23   6    -0.29   0.07  -0.16     0.14  -0.00   0.08    -0.25   0.07  -0.16
    24   6     0.03  -0.00   0.00     0.18  -0.30   0.19     0.14  -0.19   0.15

 -------------------
 - Thermochemistry -
 -------------------
 Temperature   298.150 Kelvin.  Pressure   1.00000 Atm.
 Atom     1 has atomic number  6 and mass  12.00000
 Atom     2 has atomic number  6 and mass  12.00000
 Atom     3 has atomic number  6 and mass  12.00000
 Atom     4 has atomic number  6 and mass  12.00000
 Atom     5 has atomic number  6 and mass  12.00000
 Atom     6 has atomic number  6 and mass  12.00000
 Atom     7 has atomic number  6 and mass  12.00000
 Atom     8 has atomic number  6 and mass  12.00000
 Atom     9 has atomic number  6 and mass  12.00000
 Atom    10 has atomic number  6 and mass  12.00000
 Atom    11 has atomic number  6 and mass  12.00000
 Atom    12 has atomic number  6 and mass  12.00000
 Atom    13 has atomic number  6 and mass  12.00000
 Atom    14 has atomic number  6 and mass  12.00000
 Atom    15 has atomic number  6 and mass  12.00000
 Atom    16 has atomic number  6 and mass  12.00000
 Atom    17 has atomic number  6 and mass  12.00000
 Atom    18 has atomic number  6 and mass  12.00000
 Atom    19 has atomic number  6 and mass  12.00000
 Atom    20 has atomic number  6 and mass  12.00000
 Atom    21 has atomic number  6 and mass  12.00000
 Atom    22 has atomic number  6 and mass  12.00000
 Atom    23 has atomic number  6 and mass  12.00000
 Atom    24 has atomic number  6 and mass  12.00000
 Molecular mass:   288.00000 amu.
 Principal axes and moments of inertia in atomic units:
                           1         2         3
     Eigenvalues --  3330.754873333.304643762.33624
           X            1.00000  -0.00000  -0.00000
           Y            0.00000   1.00000   0.00000
           Z            0.00000  -0.00000   1.00000
 This molecule is an asymmetric top.
 Rotational symmetry number  1.
 Warning -- assumption of classical behavior for rotation
           may cause significant error
 Rotational temperatures (Kelvin)      0.02600     0.02598     0.02302
 Rotational constants (GHZ):           0.54184     0.54143     0.47969
 Zero-point vibrational energy     361969.6 (Joules/Mol)
                                   86.51281 (Kcal/Mol)
 Warning -- explicit consideration of  17 degrees of freedom as
           vibrations may cause significant error
 Vibrational temperatures:    391.50   400.01   579.58   586.29   588.20
          (Kelvin)            688.21   727.28   728.51   757.96   759.70
                              782.43   787.86   793.62   836.55   838.86
                              860.49   867.17   896.99   910.30   913.93
                              914.92   915.16   922.04  1051.05  1052.61
                             1067.58  1071.28  1072.63  1073.36  1074.80
                             1110.59  1144.72  1187.69  1188.02  1323.23
                             1326.12  1450.80  1452.82  1466.61  1467.74
                             1501.65  1522.63  1587.29  1594.65  1643.09
                             1645.64  1689.63  1708.80  1709.85  1734.39
                             1759.37  1823.95  1825.82  1841.81  1844.04
                             1926.83  2086.84  2088.76  2107.30  2109.16
                             2197.17  2199.80  2207.46  2217.27  2218.39
                             2248.93
 
 Zero-point correction=                           0.137867 (Hartree/Particle)
 Thermal correction to Energy=                    0.147263
 Thermal correction to Enthalpy=                  0.148207
 Thermal correction to Gibbs Free Energy=         0.103502
 Sum of electronic and zero-point Energies=           -913.701930
 Sum of electronic and thermal Energies=              -913.692534
 Sum of electronic and thermal Enthalpies=            -913.691590
 Sum of electronic and thermal Free Energies=         -913.736295
 
                     E (Thermal)             CV                S
                      KCal/Mol        Cal/Mol-Kelvin    Cal/Mol-Kelvin
 Total                   92.409             47.798             94.090
 Electronic               0.000              0.000              0.000
 Translational            0.889              2.981             42.871
 Rotational               0.889              2.981             32.102
 Vibrational             90.631             41.836             19.117
 Vibration     1          0.675              1.725              1.583
 Vibration     2          0.679              1.714              1.546
 Vibration     3          0.768              1.464              0.952
 Vibration     4          0.772              1.454              0.936
 Vibration     5          0.773              1.451              0.931
 Vibration     6          0.835              1.298              0.715
 Vibration     7          0.861              1.238              0.645
 Vibration     8          0.862              1.236              0.642
 Vibration     9          0.882              1.191              0.594
 Vibration    10          0.883              1.188              0.592
 Vibration    11          0.899              1.153              0.557
 Vibration    12          0.903              1.145              0.549
 Vibration    13          0.907              1.136              0.541
 Vibration    14          0.938              1.071              0.483
 Vibration    15          0.940              1.068              0.480
 Vibration    16          0.956              1.036              0.453
 Vibration    17          0.961              1.026              0.445
                       Q            Log10(Q)             Ln(Q)
 Total Bot       0.246905D-47        -47.607471       -109.620252
 Total V=0       0.640889D+16         15.806783         36.396462
 Vib (Bot)       0.555522D-62        -62.255299       -143.348123
 Vib (Bot)    1  0.709477D+00         -0.149062         -0.343228
 Vib (Bot)    2  0.692248D+00         -0.159738         -0.367811
 Vib (Bot)    3  0.441545D+00         -0.355025         -0.817475
 Vib (Bot)    4  0.434984D+00         -0.361527         -0.832447
 Vib (Bot)    5  0.433144D+00         -0.363368         -0.836685
 Vib (Bot)    6  0.350144D+00         -0.455754         -1.049412
 Vib (Bot)    7  0.323555D+00         -0.490052         -1.128387
 Vib (Bot)    8  0.322756D+00         -0.491125         -1.130858
 Vib (Bot)    9  0.304484D+00         -0.516435         -1.189136
 Vib (Bot)   10  0.303444D+00         -0.517922         -1.192558
 Vib (Bot)   11  0.290287D+00         -0.537172         -1.236884
 Vib (Bot)   12  0.287250D+00         -0.541740         -1.247402
 Vib (Bot)   13  0.284074D+00         -0.546568         -1.258520
 Vib (Bot)   14  0.261702D+00         -0.582192         -1.340547
 Vib (Bot)   15  0.260561D+00         -0.584090         -1.344917
 Vib (Bot)   16  0.250162D+00         -0.601778         -1.385646
 Vib (Bot)   17  0.247052D+00         -0.607211         -1.398155
 Vib (V=0)       0.144197D+02          1.158955          2.668592
 Vib (V=0)    1  0.136796D+01          0.136074          0.313322
 Vib (V=0)    2  0.135394D+01          0.131598          0.303016
 Vib (V=0)    3  0.116705D+01          0.067091          0.154483
 Vib (V=0)    4  0.116273D+01          0.065479          0.150771
 Vib (V=0)    5  0.116152D+01          0.065028          0.149733
 Vib (V=0)    6  0.111041D+01          0.045483          0.104729
 Vib (V=0)    7  0.109556D+01          0.039635          0.091263
 Vib (V=0)    8  0.109512D+01          0.039463          0.090867
 Vib (V=0)    9  0.108541D+01          0.035596          0.081962
 Vib (V=0)   10  0.108487D+01          0.035380          0.081464
 Vib (V=0)   11  0.107816D+01          0.032682          0.075254
 Vib (V=0)   12  0.107664D+01          0.032070          0.073844
 Vib (V=0)   13  0.107506D+01          0.031434          0.072380
 Vib (V=0)   14  0.106435D+01          0.027083          0.062362
 Vib (V=0)   15  0.106382D+01          0.026868          0.061866
 Vib (V=0)   16  0.105909D+01          0.024933          0.057410
 Vib (V=0)   17  0.105771D+01          0.024365          0.056101
 Electronic      0.100000D+01          0.000000          0.000000
 Translational   0.192107D+09          8.283544         19.073565
 Rotational      0.231358D+07          6.364284         14.654306
 ***** Axes restored to original set *****
 -------------------------------------------------------------------
 Center     Atomic                   Forces (Hartrees/Bohr)
 Number     Number              X              Y              Z
 -------------------------------------------------------------------
      1        6          -0.000146458    0.000153127   -0.000109772
      2        6          -0.000061024   -0.000000958   -0.000018822
      3        6           0.000021928   -0.000127951   -0.000023454
      4        6           0.000081725   -0.000079212   -0.000006104
      5        6          -0.000006823    0.000073414   -0.000026799
      6        6           0.000036463   -0.000037288    0.000055778
      7        6          -0.000048398    0.000036626    0.000092302
      8        6          -0.000110800   -0.000001543    0.000217915
      9        6           0.000397603   -0.000102820    0.000229233
     10        6           0.000003190    0.000091864   -0.000038950
     11        6          -0.000214637   -0.000143036    0.000052570
     12        6          -0.000120019    0.000136538   -0.000407247
     13        6           0.000117247    0.000081482    0.000060389
     14        6          -0.000121597    0.000117835   -0.000497136
     15        6          -0.000074260   -0.000279944    0.000073227
     16        6          -0.000009625    0.000326619    0.000184132
     17        6           0.000367279   -0.000135471    0.000203878
     18        6          -0.000028861    0.000169481    0.000038133
     19        6          -0.000076336    0.000274455    0.000003754
     20        6          -0.000086200   -0.000207175    0.000015032
     21        6          -0.000055361   -0.000155959   -0.000014149
     22        6           0.000412070   -0.000091666    0.000151052
     23        6          -0.000150776   -0.000222881   -0.000018080
     24        6          -0.000126332    0.000124459   -0.000216880
 -------------------------------------------------------------------
 Cartesian Forces:  Max     0.000497136 RMS     0.000164228
 FormGI is forming the generalized inverse of G from B-inverse, IUseBI=4.

 GradGradGradGradGradGradGradGradGradGradGradGradGradGradGradGradGradGrad
 Berny optimization.
 Internal  Forces:  Max     0.000206571 RMS     0.000044610
 Search for a local minimum.
 Step number   1 out of a maximum of    2
 All quantities printed in internal units (Hartrees-Bohrs-Radians)
 Second derivative matrix not updated -- analytic derivatives used.
 ITU=  0
     Eigenvalues ---    0.01251   0.01258   0.01292   0.01630   0.01954
     Eigenvalues ---    0.02156   0.02185   0.02519   0.03519   0.03536
     Eigenvalues ---    0.03651   0.03724   0.04962   0.04986   0.05000
     Eigenvalues ---    0.06849   0.06895   0.07502   0.07513   0.07556
     Eigenvalues ---    0.07575   0.07609   0.07625   0.08053   0.08099
     Eigenvalues ---    0.08620   0.09348   0.09358   0.09640   0.09978
     Eigenvalues ---    0.12965   0.12982   0.13186   0.13223   0.14725
     Eigenvalues ---    0.15403   0.15423   0.16453   0.16501   0.16945
     Eigenvalues ---    0.17033   0.17158   0.17463   0.18408   0.18453
     Eigenvalues ---    0.20239   0.20266   0.20322   0.22720   0.22729
     Eigenvalues ---    0.24948   0.27229   0.27317   0.27785   0.30521
     Eigenvalues ---    0.30552   0.32150   0.33099   0.36654   0.36742
     Eigenvalues ---    0.40939   0.41037   0.41061   0.43861   0.43913
     Eigenvalues ---    0.47111
 Angle between quadratic step and forces=  50.08 degrees.
 Linear search not attempted -- first point.
 Iteration  1 RMS(Cart)=  0.00099089 RMS(Int)=  0.00000367
 Iteration  2 RMS(Cart)=  0.00000205 RMS(Int)=  0.00000282
 Iteration  3 RMS(Cart)=  0.00000000 RMS(Int)=  0.00000282
 Variable       Old X    -DE/DX   Delta X   Delta X   Delta X     New X
                                 (Linear)    (Quad)   (Total)
    R1        2.68905   0.00000   0.00000  -0.00026  -0.00026   2.68879
    R2        2.68996  -0.00007   0.00000  -0.00080  -0.00080   2.68916
    R3        2.89197   0.00014   0.00000   0.00351   0.00351   2.89548
    R4        2.68911  -0.00002   0.00000   0.00056   0.00056   2.68967
    R5        2.89615   0.00004   0.00000  -0.00129  -0.00129   2.89486
    R6        2.68948   0.00001   0.00000  -0.00032  -0.00032   2.68916
    R7        2.89353  -0.00012   0.00000  -0.00180  -0.00180   2.89174
    R8        2.68909   0.00001   0.00000  -0.00030  -0.00031   2.68878
    R9        2.89279   0.00002   0.00000   0.00269   0.00269   2.89548
   R10        2.68883   0.00003   0.00000   0.00084   0.00084   2.68967
   R11        2.89674  -0.00003   0.00000  -0.00188  -0.00188   2.89485
   R12        2.89293  -0.00005   0.00000  -0.00119  -0.00119   2.89174
   R13        2.68870   0.00010   0.00000   0.00040   0.00039   2.68909
   R14        2.68965   0.00015   0.00000  -0.00025  -0.00025   2.68939
   R15        2.89504  -0.00001   0.00000   0.00176   0.00176   2.89680
   R16        2.68916  -0.00009   0.00000   0.00019   0.00019   2.68936
   R17        2.89636  -0.00021   0.00000  -0.00396  -0.00396   2.89240
   R18        2.68937   0.00016   0.00000   0.00003   0.00003   2.68940
   R19        2.89203   0.00007   0.00000   0.00137   0.00137   2.89340
   R20        2.68922   0.00001   0.00000  -0.00012  -0.00013   2.68909
   R21        2.89425   0.00007   0.00000   0.00255   0.00255   2.89680
   R22        2.68880  -0.00005   0.00000   0.00056   0.00055   2.68936
   R23        2.89607  -0.00016   0.00000  -0.00367  -0.00367   2.89240
   R24        2.89211   0.00005   0.00000   0.00129   0.00129   2.89340
   R25        2.76234   0.00001   0.00000   0.00050   0.00051   2.76285
   R26        2.58000  -0.00009   0.00000  -0.00031  -0.00031   2.57969
   R27        2.57963  -0.00000   0.00000  -0.00005  -0.00005   2.57958
   R28        2.76278   0.00008   0.00000   0.00023   0.00023   2.76301
   R29        2.57964  -0.00001   0.00000   0.00007   0.00007   2.57972
   R30        2.76323   0.00002   0.00000  -0.00044  -0.00043   2.76279
   R31        2.57963  -0.00002   0.00000   0.00008   0.00009   2.57972
   R32        2.76255   0.00010   0.00000   0.00046   0.00046   2.76301
   R33        2.58004  -0.00008   0.00000  -0.00035  -0.00034   2.57969
   R34        2.76222   0.00004   0.00000   0.00062   0.00063   2.76284
   R35        2.57959  -0.00000   0.00000  -0.00002  -0.00001   2.57958
   R36        2.76326   0.00001   0.00000  -0.00047  -0.00047   2.76279
    A1        2.09502   0.00003   0.00000  -0.00042  -0.00042   2.09460
    A2        1.87162  -0.00001   0.00000   0.00146   0.00145   1.87307
    A3        1.85063   0.00001   0.00000   0.00037   0.00037   1.85100
    A4        2.09345   0.00001   0.00000   0.00017   0.00017   2.09362
    A5        1.85030  -0.00000   0.00000  -0.00036  -0.00036   1.84994
    A6        1.87262   0.00000   0.00000  -0.00082  -0.00082   1.87180
    A7        2.09474  -0.00003   0.00000   0.00022   0.00022   2.09496
    A8        1.85048   0.00001   0.00000   0.00010   0.00010   1.85058
    A9        1.87181   0.00000   0.00000  -0.00089  -0.00089   1.87092
   A10        2.09496   0.00001   0.00000  -0.00036  -0.00036   2.09460
   A11        1.85060   0.00001   0.00000   0.00040   0.00040   1.85100
   A12        1.87153   0.00001   0.00000   0.00154   0.00154   1.87307
   A13        2.09366  -0.00000   0.00000  -0.00003  -0.00003   2.09362
   A14        1.85043  -0.00001   0.00000  -0.00048  -0.00048   1.84994
   A15        1.87273   0.00001   0.00000  -0.00092  -0.00092   1.87180
   A16        2.09454  -0.00002   0.00000   0.00042   0.00042   2.09496
   A17        1.87144   0.00002   0.00000  -0.00052  -0.00052   1.87092
   A18        1.85043  -0.00001   0.00000   0.00015   0.00015   1.85058
   A19        2.09337   0.00000   0.00000  -0.00001  -0.00001   2.09336
   A20        1.85019  -0.00002   0.00000   0.00007   0.00007   1.85027
   A21        1.87116   0.00004   0.00000   0.00163   0.00164   1.87280
   A22        2.09433   0.00001   0.00000   0.00096   0.00096   2.09529
   A23        1.87314   0.00003   0.00000  -0.00110  -0.00111   1.87203
   A24        1.85073  -0.00002   0.00000  -0.00027  -0.00026   1.85047
   A25        2.09544  -0.00002   0.00000  -0.00090  -0.00090   2.09454
   A26        1.87130   0.00004   0.00000   0.00050   0.00050   1.87180
   A27        1.85101  -0.00005   0.00000  -0.00073  -0.00072   1.85028
   A28        2.09348   0.00002   0.00000  -0.00012  -0.00013   2.09336
   A29        1.87135   0.00001   0.00000   0.00145   0.00145   1.87280
   A30        1.85024  -0.00002   0.00000   0.00003   0.00003   1.85027
   A31        2.09413   0.00002   0.00000   0.00116   0.00116   2.09529
   A32        1.87288   0.00004   0.00000  -0.00084  -0.00084   1.87203
   A33        1.85077  -0.00005   0.00000  -0.00031  -0.00031   1.85047
   A34        2.09563  -0.00003   0.00000  -0.00108  -0.00108   2.09454
   A35        1.85117  -0.00007   0.00000  -0.00088  -0.00088   1.85028
   A36        1.87124   0.00006   0.00000   0.00055   0.00055   1.87180
   A37        1.87563   0.00002   0.00000  -0.00024  -0.00024   1.87539
   A38        1.90949  -0.00000   0.00000   0.00168   0.00167   1.91117
   A39        1.89922  -0.00001   0.00000  -0.00005  -0.00004   1.89918
   A40        1.87524   0.00006   0.00000   0.00124   0.00123   1.87647
   A41        1.90924   0.00002   0.00000   0.00339   0.00339   1.91263
   A42        1.89908   0.00000   0.00000   0.00194   0.00193   1.90101
   A43        1.91335  -0.00007   0.00000  -0.00138  -0.00138   1.91197
   A44        1.87615   0.00002   0.00000  -0.00065  -0.00066   1.87550
   A45        1.90111  -0.00001   0.00000  -0.00146  -0.00146   1.89965
   A46        1.87545   0.00002   0.00000   0.00112   0.00111   1.87656
   A47        1.91189   0.00003   0.00000   0.00209   0.00209   1.91398
   A48        1.89952   0.00002   0.00000   0.00186   0.00186   1.90138
   A49        1.91331  -0.00002   0.00000  -0.00354  -0.00354   1.90977
   A50        1.87656  -0.00007   0.00000  -0.00110  -0.00111   1.87546
   A51        1.90150   0.00002   0.00000  -0.00173  -0.00174   1.89976
   A52        1.87502  -0.00004   0.00000   0.00003   0.00003   1.87505
   A53        1.91134  -0.00000   0.00000  -0.00227  -0.00227   1.90907
   A54        1.89889   0.00002   0.00000  -0.00017  -0.00017   1.89872
   A55        1.87598   0.00001   0.00000  -0.00048  -0.00048   1.87550
   A56        1.91347  -0.00006   0.00000  -0.00150  -0.00150   1.91196
   A57        1.90113  -0.00001   0.00000  -0.00147  -0.00148   1.89965
   A58        1.91250   0.00002   0.00000   0.00148   0.00147   1.91398
   A59        1.87579  -0.00000   0.00000   0.00077   0.00077   1.87656
   A60        1.89994   0.00001   0.00000   0.00144   0.00144   1.90138
   A61        1.90911   0.00002   0.00000   0.00206   0.00206   1.91117
   A62        1.87533   0.00001   0.00000   0.00006   0.00006   1.87539
   A63        1.89897  -0.00001   0.00000   0.00021   0.00021   1.89918
   A64        1.87550   0.00006   0.00000   0.00098   0.00097   1.87647
   A65        1.90955   0.00003   0.00000   0.00308   0.00308   1.91263
   A66        1.89951  -0.00001   0.00000   0.00150   0.00150   1.90101
   A67        1.91169  -0.00001   0.00000  -0.00262  -0.00262   1.90907
   A68        1.87532  -0.00005   0.00000  -0.00027  -0.00027   1.87505
   A69        1.89941   0.00001   0.00000  -0.00069  -0.00069   1.89872
   A70        1.91300  -0.00001   0.00000  -0.00323  -0.00324   1.90976
   A71        1.87614  -0.00005   0.00000  -0.00068  -0.00068   1.87546
   A72        1.90125   0.00001   0.00000  -0.00149  -0.00149   1.89976
    D1        0.00084   0.00001   0.00000   0.00073   0.00073   0.00157
    D2        2.12114   0.00002   0.00000  -0.00056  -0.00056   2.12059
    D3       -2.10911  -0.00001   0.00000  -0.00073  -0.00073  -2.10984
    D4        0.01120  -0.00001   0.00000  -0.00201  -0.00202   0.00918
    D5       -0.00044  -0.00002   0.00000  -0.00041  -0.00041  -0.00086
    D6       -2.10964  -0.00001   0.00000  -0.00046  -0.00046  -2.11010
    D7        2.11987  -0.00001   0.00000   0.00157   0.00157   2.12144
    D8        0.01067   0.00001   0.00000   0.00153   0.00153   0.01220
    D9        0.09141   0.00006   0.00000   0.00423   0.00422   0.09563
   D10        2.15609   0.00004   0.00000  -0.00042  -0.00042   2.15568
   D11       -2.16667   0.00003   0.00000   0.00359   0.00359  -2.16308
   D12       -0.10198   0.00001   0.00000  -0.00106  -0.00106  -0.10304
   D13       -0.00059   0.00001   0.00000  -0.00013  -0.00013  -0.00072
   D14        2.11966  -0.00000   0.00000  -0.00109  -0.00109   2.11857
   D15       -2.10985   0.00001   0.00000   0.00094   0.00094  -2.10891
   D16        0.01040  -0.00000   0.00000  -0.00003  -0.00003   0.01037
   D17       -0.10265  -0.00004   0.00000  -0.00066  -0.00066  -0.10331
   D18       -2.16200  -0.00004   0.00000  -0.00138  -0.00138  -2.16338
   D19        2.15394  -0.00003   0.00000  -0.00119  -0.00119   2.15275
   D20        0.09459  -0.00003   0.00000  -0.00191  -0.00191   0.09268
   D21       -0.00007  -0.00002   0.00000  -0.00078  -0.00078  -0.00086
   D22        2.12005   0.00000   0.00000   0.00138   0.00138   2.12144
   D23       -2.10979  -0.00001   0.00000  -0.00030  -0.00031  -2.11010
   D24        0.01033   0.00001   0.00000   0.00186   0.00186   0.01220
   D25       -0.10437   0.00004   0.00000   0.00184   0.00184  -0.10253
   D26       -2.16528  -0.00001   0.00000  -0.00216  -0.00216  -2.16744
   D27        2.15339   0.00001   0.00000   0.00161   0.00162   2.15501
   D28        0.09248  -0.00003   0.00000  -0.00238  -0.00239   0.09010
   D29        0.00047   0.00001   0.00000   0.00110   0.00110   0.00157
   D30        2.12116   0.00002   0.00000  -0.00058  -0.00058   2.12058
   D31       -2.10932  -0.00002   0.00000  -0.00051  -0.00052  -2.10984
   D32        0.01137  -0.00001   0.00000  -0.00219  -0.00219   0.00918
   D33       -2.16622   0.00003   0.00000   0.00315   0.00314  -2.16308
   D34       -0.10224   0.00001   0.00000  -0.00080  -0.00080  -0.10304
   D35        0.09171   0.00005   0.00000   0.00393   0.00393   0.09563
   D36        2.15569   0.00004   0.00000  -0.00002  -0.00001   2.15567
   D37       -0.00022   0.00001   0.00000  -0.00050  -0.00050  -0.00071
   D38        2.11936   0.00001   0.00000  -0.00079  -0.00079   2.11857
   D39       -2.10988   0.00001   0.00000   0.00097   0.00097  -2.10891
   D40        0.00969   0.00001   0.00000   0.00068   0.00068   0.01037
   D41       -2.16188  -0.00004   0.00000  -0.00150  -0.00150  -2.16338
   D42       -0.10321  -0.00003   0.00000  -0.00010  -0.00010  -0.10330
   D43        0.09510  -0.00004   0.00000  -0.00242  -0.00243   0.09268
   D44        2.15377  -0.00003   0.00000  -0.00102  -0.00102   2.15275
   D45        0.09160  -0.00002   0.00000  -0.00151  -0.00151   0.09010
   D46        2.15354   0.00001   0.00000   0.00147   0.00147   2.15501
   D47       -2.16566   0.00000   0.00000  -0.00178  -0.00178  -2.16744
   D48       -0.10372   0.00003   0.00000   0.00119   0.00119  -0.10253
   D49        0.00154   0.00001   0.00000  -0.00057  -0.00057   0.00097
   D50       -2.10937   0.00001   0.00000   0.00006   0.00006  -2.10931
   D51        2.11973   0.00005   0.00000   0.00168   0.00169   2.12142
   D52        0.00882   0.00005   0.00000   0.00232   0.00231   0.01114
   D53       -0.00182   0.00002   0.00000   0.00138   0.00138  -0.00044
   D54        2.11887   0.00002   0.00000   0.00062   0.00062   2.11949
   D55       -2.10963   0.00001   0.00000  -0.00011  -0.00011  -2.10974
   D56        0.01106   0.00001   0.00000  -0.00087  -0.00087   0.01019
   D57       -0.10326   0.00000   0.00000   0.00007   0.00007  -0.10319
   D58       -2.16287   0.00000   0.00000   0.00149   0.00149  -2.16138
   D59        2.15224   0.00002   0.00000   0.00112   0.00112   2.15337
   D60        0.09264   0.00002   0.00000   0.00254   0.00254   0.09518
   D61        0.00004  -0.00003   0.00000  -0.00058  -0.00058  -0.00054
   D62       -2.11045   0.00003   0.00000   0.00062   0.00062  -2.10983
   D63        2.12201  -0.00000   0.00000  -0.00163  -0.00163   2.12038
   D64        0.01152   0.00005   0.00000  -0.00044  -0.00044   0.01108
   D65        2.15504  -0.00003   0.00000   0.00076   0.00076   2.15581
   D66        0.09622  -0.00008   0.00000  -0.00409  -0.00410   0.09213
   D67       -0.10321  -0.00005   0.00000   0.00045   0.00045  -0.10276
   D68       -2.16203  -0.00009   0.00000  -0.00440  -0.00441  -2.16644
   D69       -0.00134   0.00001   0.00000   0.00091   0.00091  -0.00044
   D70       -2.10946   0.00002   0.00000  -0.00028  -0.00028  -2.10974
   D71        2.11916   0.00001   0.00000   0.00033   0.00034   2.11949
   D72        0.01104   0.00001   0.00000  -0.00085  -0.00085   0.01019
   D73        0.09145  -0.00005   0.00000   0.00023   0.00023   0.09168
   D74        2.15546  -0.00008   0.00000  -0.00265  -0.00264   2.15282
   D75       -2.16718  -0.00001   0.00000   0.00148   0.00148  -2.16570
   D76       -0.10317  -0.00005   0.00000  -0.00140  -0.00140  -0.10457
   D77        0.00106   0.00002   0.00000  -0.00010  -0.00010   0.00097
   D78       -2.10953   0.00003   0.00000   0.00023   0.00023  -2.10931
   D79        2.11963   0.00003   0.00000   0.00178   0.00179   2.12141
   D80        0.00903   0.00004   0.00000   0.00211   0.00211   0.01114
   D81        0.09221   0.00003   0.00000   0.00298   0.00297   0.09518
   D82        2.15280   0.00001   0.00000   0.00057   0.00057   2.15337
   D83       -2.16359   0.00001   0.00000   0.00221   0.00220  -2.16138
   D84       -0.10299  -0.00000   0.00000  -0.00020  -0.00020  -0.10319
   D85        0.00052  -0.00003   0.00000  -0.00105  -0.00105  -0.00053
   D86       -2.11027   0.00003   0.00000   0.00044   0.00044  -2.10983
   D87        2.12203  -0.00000   0.00000  -0.00165  -0.00165   2.12038
   D88        0.01124   0.00006   0.00000  -0.00016  -0.00016   0.01108
   D89        2.15522  -0.00003   0.00000   0.00057   0.00058   2.15580
   D90        0.09557  -0.00006   0.00000  -0.00344  -0.00345   0.09212
   D91       -0.10265  -0.00006   0.00000  -0.00011  -0.00011  -0.10276
   D92       -2.16230  -0.00009   0.00000  -0.00413  -0.00414  -2.16644
   D93       -0.10362  -0.00003   0.00000  -0.00096  -0.00095  -0.10457
   D94       -2.16761   0.00001   0.00000   0.00191   0.00191  -2.16570
   D95        2.15531  -0.00008   0.00000  -0.00249  -0.00249   2.15282
   D96        0.09132  -0.00004   0.00000   0.00037   0.00037   0.09169
   D97       -1.90228   0.00002   0.00000  -0.00203  -0.00203  -1.90431
   D98        0.16312   0.00009   0.00000   0.00374   0.00374   0.16686
   D99        0.16372   0.00002   0.00000  -0.00020  -0.00020   0.16352
   D100       2.22911   0.00009   0.00000   0.00557   0.00557   2.23468
   D101       1.88649   0.00004   0.00000   0.00083   0.00084   1.88732
   D102      -0.16196   0.00006   0.00000   0.00325   0.00325  -0.15870
   D103      -0.15806   0.00002   0.00000   0.00021   0.00021  -0.15785
   D104      -2.20650   0.00005   0.00000   0.00263   0.00263  -2.20388
   D105       1.88624  -0.00000   0.00000  -0.00020  -0.00019   1.88605
   D106      -0.16290   0.00007   0.00000   0.00415   0.00416  -0.15875
   D107      -0.15761  -0.00009   0.00000  -0.00470  -0.00470  -0.16231
   D108      -2.20675  -0.00001   0.00000  -0.00035  -0.00035  -2.20710
   D109      -1.90459   0.00002   0.00000  -0.00048  -0.00049  -1.90508
   D110       0.16431   0.00007   0.00000   0.00364   0.00364   0.16795
   D111       0.16730  -0.00006   0.00000  -0.00329  -0.00329   0.16401
   D112       2.23620  -0.00001   0.00000   0.00083   0.00083   2.23703
   D113       1.88717  -0.00001   0.00000  -0.00040  -0.00040   1.88678
   D114      -0.15834   0.00004   0.00000   0.00180   0.00180  -0.15654
   D115      -0.15868  -0.00006   0.00000  -0.00400  -0.00400  -0.16268
   D116      -2.20419  -0.00001   0.00000  -0.00180  -0.00180  -2.20600
   D117      -1.90504  -0.00000   0.00000   0.00275   0.00275  -1.90229
   D118       0.16262  -0.00002   0.00000  -0.00002  -0.00002   0.16260
   D119       0.16725  -0.00005   0.00000  -0.00303  -0.00303   0.16422
   D120       2.23491  -0.00007   0.00000  -0.00580  -0.00580   2.22911
   D121       1.88741  -0.00003   0.00000  -0.00064  -0.00064   1.88678
   D122      -0.15944  -0.00004   0.00000  -0.00324  -0.00324  -0.16268
   D123      -0.15725   0.00001   0.00000   0.00071   0.00071  -0.15654
   D124      -2.20410  -0.00000   0.00000  -0.00189  -0.00189  -2.20599
   D125      -1.90496   0.00002   0.00000  -0.00012  -0.00012  -1.90508
   D126       0.16509   0.00005   0.00000   0.00286   0.00286   0.16795
   D127       0.16699  -0.00005   0.00000  -0.00298  -0.00298   0.16401
   D128       2.23704  -0.00002   0.00000  -0.00001  -0.00001   2.23703
   D129       1.88630   0.00003   0.00000   0.00102   0.00102   1.88732
   D130      -0.15752   0.00001   0.00000  -0.00033  -0.00033  -0.15785
   D131      -0.16201   0.00006   0.00000   0.00331   0.00331  -0.15870
   D132      -2.20584   0.00004   0.00000   0.00196   0.00196  -2.20388
   D133      -1.90221   0.00001   0.00000  -0.00209  -0.00210  -1.90431
   D134       0.16393   0.00007   0.00000   0.00292   0.00293   0.16686
   D135       0.16302   0.00004   0.00000   0.00050   0.00050   0.16352
   D136       2.22917   0.00010   0.00000   0.00551   0.00552   2.23468
   D137       1.88626   0.00000   0.00000  -0.00022  -0.00021   1.88605
   D138      -0.16205   0.00006   0.00000   0.00331   0.00331  -0.15874
   D139      -0.15832  -0.00007   0.00000  -0.00398  -0.00398  -0.16230
   D140      -2.20663  -0.00002   0.00000  -0.00046  -0.00046  -2.20710
   D141      -1.90502  -0.00001   0.00000   0.00273   0.00272  -1.90229
   D142       0.16654  -0.00004   0.00000  -0.00232  -0.00232   0.16422
   D143       0.16352  -0.00004   0.00000  -0.00091  -0.00091   0.16261
   D144       2.23507  -0.00007   0.00000  -0.00596  -0.00595   2.22911
         Item               Value     Threshold  Converged?
 Maximum Force            0.000207     0.000450     YES
 RMS     Force            0.000045     0.000300     YES
 Maximum Displacement     0.004576     0.001800     NO 
 RMS     Displacement     0.000991     0.001200     YES
 Predicted change in Energy=-6.587477D-06
 GradGradGradGradGradGradGradGradGradGradGradGradGradGradGradGradGradGrad

 1\1\GINC-T150\Freq\RB3LYP\6-31G(d,p)\C24\LV15011\10-Nov-2025\0\\#N Geo
 m=AllCheck Guess=TCheck SCRF=Check GenChk RB3LYP/6-31G(d,p) Freq\\Titl
 e Card Required\\0,1\C,-1.0451123884,-0.0268086673,2.1963150184\C,-1.5
 140413603,-1.2451667105,1.6301106375\C,-2.4187913387,-1.2163266417,0.5
 321253053\C,-2.8547649958,0.0301414605,0.0012972715\C,-2.386427748,1.2
 48495152,0.5680578391\C,-1.4813867158,1.2199014512,1.6656178067\C,1.35
 00593957,0.736657479,-0.0440266616\C,1.3676699903,-0.6858103345,-0.018
 9884197\C,0.5929286512,-1.4235258205,-0.9573953616\C,-0.1998447553,-0.
 7397732875,-1.9214276582\C,-0.2187585288,0.6829684598,-1.9455218195\C,
 0.5556782474,1.420417916,-1.0069441458\C,-0.2654461512,-2.0065184123,1
 .1716996006\C,0.8831811576,-1.1238763341,1.3675544718\C,-0.374763709,-
 2.2986328155,-0.1574741379\C,-1.7293863726,-1.9772770752,-0.6037554637
 \C,0.4803721804,-0.0275782221,2.0741801534\C,0.8637962099,1.1775856826
 ,1.3402160786\C,-0.4128521433,2.2980282706,-0.2107108998\C,-0.23379837
 18,1.9777598153,1.2043695478\C,-1.6972610131,2.0077660667,-0.571372543
 6\C,-1.6714798199,1.1232697488,-1.7348059904\C,-1.6517301916,-1.177991
 2821,-1.7076470831\C,-2.443897229,0.0285571007,-1.4733315458\\Version=
 ES64L-G09RevD.01\State=1-A\HF=-913.8397969\RMSD=5.502e-09\RMSF=1.642e-
 04\ZeroPoint=0.1378669\Thermal=0.1472628\Dipole=-0.0007435,0.000388,0.
 0005499\DipoleDeriv=0.1695012,-0.2218146,-0.1167247,-0.0104848,0.09992
 38,0.0242926,-0.056785,0.0258021,-0.0869701,0.0614106,-0.101254,-0.164
 7827,0.0006732,0.0284835,0.2141768,0.0073932,0.129064,0.101697,-0.0085
 271,-0.055041,-0.1038007,-0.0718622,-0.0729421,0.0837327,0.0054252,-0.
 1012774,0.2706233,-0.0453594,0.0679199,-0.0983,0.026074,0.0985871,-0.0
 056531,-0.158172,-0.2123515,0.1278988,0.1305177,0.1456835,0.020218,0.2
 096674,0.028465,0.04196,-0.1520187,-0.0742539,0.0340391,0.2781177,-0.0
 895437,0.0616296,0.0947723,-0.0741133,-0.0550671,-0.0480212,-0.0730291
 ,-0.0179084,0.0179274,-0.144147,-0.0526635,-0.1430836,0.1102927,-0.028
 448,-0.1840493,0.1417955,0.0602658,-0.0390534,0.0115717,-0.1029574,0.0
 621125,0.0076661,-0.0055757,-0.0785608,0.2040509,0.2247583,0.0253287,0
 .0703162,-0.1268209,0.0308389,-0.0686705,-0.1809099,0.035887,-0.038976
 5,0.2246899,0.1035525,0.1660117,-0.168358,-0.0011652,0.110166,-0.14582
 21,-0.0365925,-0.1144379,-0.024462,0.2487907,0.1980807,-0.0224447,-0.0
 173984,0.0074689,0.060024,-0.0466982,0.0497957,-0.0649047,0.2340725,-0
 .0521089,0.0763989,-0.1838298,-0.068506,-0.0047786,-0.0858275,0.061521
 7,0.0161355,0.1742452,-0.0379157,0.1341578,-0.173017,0.0031127,0.49478
 31,0.0898546,0.0112974,-0.3780206,-0.3329781,0.4158324,0.238273,0.1987
 694,-0.0448813,-0.1825206,-0.173582,0.0096971,0.1747892,0.0706027,0.17
 94438,0.2599651,0.2560404,-0.1078062,-0.5142021,0.0116731,-0.0764838,-
 0.1374739,-0.1115818,-0.3382574,0.3068615,-0.2852503,-0.1436344,0.3726
 238,-0.0747198,0.0439499,0.0688379,0.2182029,0.046969,-0.0793238,0.038
 2538,0.0809394,0.0399485,0.2580792,-0.3417878,-0.4712501,-0.5160635,0.
 1618614,0.0146509,-0.3149768,0.1074493,0.021086,-0.1525181,0.0026355,0
 .2173517,-0.1813167,-0.1097075,-0.0367424,-0.5531264,-0.1058139,0.1534
 214,0.2125202,0.1618536,0.1140108,0.0205971,0.1078534,-0.0497192,0.421
 2291,-0.1434729,-0.2070628,0.3306135,-0.3240174,-0.0601058,-0.3994347,
 0.019668,-0.0219026,0.5197451,0.0014518,-0.0748486,0.0225141,-0.034418
 9,0.1964726,0.1447701,-0.0703674,-0.0797882,-0.2180255,-0.0434289,0.15
 8822,0.3320487,0.4091742,-0.3018359,0.2173226,-0.027695,-0.0094808,0.0
 816765,0.1080595,-0.305229,0.1580306,0.1591491,-0.513866,-0.4806451,-0
 .3433595,0.121655,0.0323676,0.0812036,0.0452469,-0.2164944,-0.0187526,
 0.2252278\Polar=166.8175151,-0.0526925,188.5338476,17.9720783,-0.12275
 96,173.7545819\PG=C01 [X(C24)]\NImag=0\\0.39109244,0.00511613,0.563983
 50,0.07093056,-0.00107709,0.22204094,-0.10051069,-0.00917776,-0.042124
 50,0.40938648,-0.05344172,-0.20412609,-0.07812124,-0.00674225,0.409537
 33,-0.05305331,-0.04830467,-0.06373604,0.14055325,0.12030141,0.3591359
 4,-0.00560155,-0.05512571,-0.00274371,-0.12117877,0.04018518,-0.092359
 59,0.31207802,-0.01818325,0.02779025,0.00225669,0.00909606,-0.08603837
 ,-0.04049285,-0.12537800,0.41291850,-0.01825898,-0.05613006,-0.0269546
 9,-0.11001892,0.00067913,-0.16163012,0.12013528,-0.01477601,0.45246791
 ,0.00500665,-0.00044209,-0.01798772,-0.01800224,-0.00622546,-0.0035134
 5,-0.04583157,0.06690635,-0.03463050,0.20161172,0.00122486,-0.07046316
 ,-0.00006050,0.04474243,0.02412174,0.06701444,0.04656633,-0.20349168,0
 .01784583,-0.00159673,0.56422360,-0.00228904,0.00126494,0.00106520,-0.
 01900337,0.02026223,-0.01127742,-0.04132897,0.06780362,-0.11672890,0.0
 3435370,0.00439761,0.41107082,-0.00721310,0.05732542,-0.00151820,-0.01
 374400,-0.01259981,-0.03788025,0.00491917,-0.03114766,0.02423927,-0.04
 744180,-0.04592445,-0.04275878,0.30874005,0.02108923,0.02409395,-0.002
 30534,-0.02238596,-0.02394934,-0.01710858,0.02595402,-0.05317486,0.020
 32890,-0.06676733,-0.20397680,-0.06721049,0.11958440,0.40915117,-0.016
 88063,0.05665216,-0.02207318,-0.02879878,-0.02519773,-0.02659838,0.024
 98851,-0.02161490,0.04299856,-0.03172303,-0.01803982,-0.11685801,0.121
 06774,0.01631286,0.46009995,-0.09984054,0.00830151,-0.04494020,0.03240
 762,0.01491985,0.02946791,-0.01421315,0.02284832,-0.03066747,-0.022300
 08,-0.04453820,-0.02145675,-0.12244524,-0.00709420,-0.11037799,0.40278
 640,0.05343725,-0.20306203,0.07866217,-0.01537020,-0.05314079,-0.03465
 163,0.01120453,-0.02298093,0.02552024,0.00575665,0.02772609,-0.0174236
 1,-0.04159957,-0.08591730,0.00128348,0.00985870,0.41219217,-0.05174474
 ,0.04922875,-0.06271356,0.03036369,0.02935639,0.01547236,-0.03736745,0
 .01592656,-0.02745444,-0.00608862,-0.06486637,-0.01019083,-0.09260201,
 0.03961289,-0.16078082,0.13744559,-0.12606771,0.36264641,-0.00005754,0
 .00858192,0.00038680,-0.00286939,-0.00452425,-0.00495482,0.00411451,-0
 .00483681,0.00713524,0.00401124,0.00906931,0.00212537,-0.00807503,-0.0
 0435276,-0.00368421,0.00099101,-0.00092975,0.00950092,0.23443570,0.007
 79752,-0.00504818,-0.00422483,-0.00475274,-0.00311096,0.00508306,0.006
 27556,0.00355279,-0.00425664,-0.00604046,0.00040134,0.00072620,0.00868
 625,0.00227296,-0.00280902,-0.00206321,0.00549204,0.00650994,-0.091234
 34,0.51396960,-0.00155162,-0.00392913,0.00470285,0.00346333,0.00174286
 ,-0.00009904,-0.00304710,-0.00177425,-0.00014120,0.00571374,-0.0020321
 8,-0.00609659,0.00056878,0.00751558,-0.00714283,0.00792373,0.00536077,
 -0.00591475,0.06266667,-0.04196989,0.43249626,-0.00430491,-0.00655207,
 0.01059088,0.00734062,0.00196176,0.00004507,-0.00741138,0.00111795,-0.
 00332702,0.00430535,-0.00715650,-0.00045799,0.00234988,0.00241887,0.00
 815896,-0.00292405,0.00079642,-0.00421404,-0.02668558,0.00897179,-0.01
 649336,0.23410239,-0.00619170,0.00225786,0.00279830,0.00279980,-0.0013
 5740,-0.00805969,-0.00383741,-0.00193816,0.00435764,0.00684521,0.00522
 875,-0.00105633,-0.01000154,0.00100402,0.00250709,0.00437401,-0.008992
 97,0.00079958,-0.01064303,-0.24529297,-0.02483204,0.09761150,0.5177173
 8,0.00800446,0.00312975,0.00236816,-0.00139000,-0.00677290,-0.00622697
 ,-0.00096564,-0.00287558,0.00341117,0.00327585,0.00380727,-0.00192735,
 -0.00182346,0.00183830,-0.00519063,0.01238979,0.00325704,-0.00095817,-
 0.01847212,0.02598012,-0.09766947,0.06217000,0.03470195,0.42573206,-0.
 00469510,0.00075616,-0.00444781,-0.01183627,-0.00312417,0.00504431,0.0
 0770760,-0.00125268,-0.00188935,-0.00575005,0.00516986,0.00142979,0.00
 329235,-0.00501311,-0.00435865,-0.00368416,-0.00309750,0.00849613,-0.0
 0248675,-0.04949792,0.00927152,-0.08852490,-0.05254673,-0.08549762,0.3
 8325773,-0.00815051,-0.00338010,-0.00130776,-0.00162132,0.00862751,-0.
 00093981,0.00042537,0.00239437,0.00191880,0.00198227,-0.00258362,0.000
 75523,0.00118288,0.00196435,0.00364907,-0.00512622,0.00189280,-0.00001
 829,0.00696870,-0.02846970,-0.01771455,-0.07806508,-0.12541844,-0.0590
 4217,0.07615374,0.36030997,0.00760107,-0.00926585,-0.00499389,0.004652
 69,0.00037164,0.00375104,-0.00146748,0.00408775,-0.01095499,-0.0046430
 2,-0.00509399,0.00219666,0.00954468,0.00202641,0.00225153,-0.00486976,
 0.00801567,0.00018944,0.01779756,-0.06077547,0.02615032,-0.07139296,-0
 .01276782,-0.15289286,0.15406608,-0.05900001,0.43582254,-0.00720687,-0
 .00370361,0.00351518,-0.00661269,0.00822605,0.00087233,-0.00888989,0.0
 0549319,0.00600777,0.00472423,-0.00551783,-0.00059930,0.00010468,0.002
 57546,0.00402430,-0.00077842,-0.00082206,-0.00396189,-0.00110338,0.019
 63357,-0.01061294,-0.02229644,-0.01275366,-0.03252451,-0.12174222,0.04
 210169,-0.09257422,0.40231137,0.00187898,0.00038616,-0.00579044,-0.004
 38575,0.00227098,0.00799018,0.00681742,0.00545420,-0.00081762,-0.00564
 576,-0.00501741,0.00684369,0.00589968,-0.00312796,-0.00371004,-0.00533
 996,0.00358052,0.00534992,0.01467722,-0.05527751,0.02297794,0.03169366
 ,0.05156546,0.01551963,0.00346033,-0.12535454,0.05252849,-0.02348455,0
 .51344864,-0.00006064,0.00851021,0.00510372,-0.00340904,-0.00283088,-0
 .00861363,0.00757931,0.00009329,0.00399293,0.00134064,0.00767894,-0.00
 011485,-0.00439436,-0.00411053,-0.00303506,0.00618099,-0.00510064,0.00
 472748,-0.02543003,0.01886585,-0.00816174,-0.01470421,-0.03725469,-0.0
 3467721,-0.07597890,0.08673852,-0.12244220,0.09510886,-0.09817849,0.26
 549120,-0.00222813,0.00508729,0.00200622,-0.00608511,0.00135522,-0.003
 44605,-0.00255878,0.00307426,0.01244962,-0.00133513,0.00431966,0.00856
 028,-0.00548161,-0.00701259,-0.00383328,0.00378001,-0.00304122,0.00120
 251,-0.02541860,0.00925714,-0.03315212,-0.00149141,-0.02102804,-0.0121
 7351,0.01998222,0.01763210,0.01146578,-0.08856780,0.02349323,-0.030504
 28,0.39583646,-0.00234334,0.00522541,0.00651655,0.00435390,0.00101180,
 -0.00933467,-0.00007429,-0.00898922,0.00446152,0.00394778,0.00223936,-
 0.00555367,-0.00844653,-0.00134492,0.00124165,0.00498339,-0.00195678,-
 0.00295309,-0.03405945,0.05160435,-0.01968314,-0.01389893,-0.05417960,
 -0.02404338,0.04963417,-0.02519240,0.06334091,-0.02261831,-0.24476384,
 -0.01482319,0.01585357,0.51749844,-0.00172556,-0.00628700,0.00460930,0
 .00652327,0.00271277,0.00326375,-0.00414059,0.00142076,-0.00132245,0.0
 1114377,-0.00586452,-0.00057275,-0.00242422,0.00064828,0.00660021,-0.0
 0116218,0.00054998,-0.00780720,-0.01521818,0.03400152,-0.03160149,-0.0
 2499275,-0.01813806,-0.00863724,0.02077172,0.00110019,-0.00016814,-0.0
 2841588,0.01406339,-0.03583503,0.09374170,0.10213529,0.26427343,0.0025
 1373,-0.00600221,-0.00302674,0.00134229,0.00294954,0.00916377,-0.00059
 748,0.00845331,-0.00432260,-0.00560616,-0.00922862,0.00740903,0.001390
 48,0.00099940,0.00718179,-0.00962255,0.00428379,-0.00482742,-0.0906147
 1,0.05063061,-0.08645966,-0.00536303,0.05273363,0.00652508,-0.02058677
 ,-0.00597623,-0.04237511,0.01992006,-0.05031164,0.02224213,-0.12137808
 ,-0.00267180,-0.07802499,0.37604044,0.00035953,-0.00256121,0.00209759,
 0.00335608,0.00194815,0.00183543,0.00097834,0.00184323,-0.00503148,0.0
 0027938,-0.00336124,-0.00825612,-0.00061599,0.00860221,-0.00179985,0.0
 0182593,0.00238001,0.00079913,0.07689568,-0.12534306,0.05787205,-0.002
 30166,-0.02520264,0.01758450,0.00630923,-0.00755697,-0.00482045,-0.018
 78197,-0.02842128,0.00345057,-0.04328380,-0.12561239,-0.08790181,-0.07
 209194,0.36071373,0.00304044,0.00409689,-0.00607037,-0.00473621,-0.004
 53222,0.00421909,0.00908853,-0.00155140,-0.00287098,-0.00462011,-0.001
 00273,-0.00409863,0.00758041,-0.00302318,-0.00947496,-0.00522104,-0.00
 042501,0.00640586,-0.06993864,0.01337681,-0.15326203,0.01595077,0.0608
 4728,0.02519090,-0.03994904,0.00529782,-0.03652129,0.01354241,-0.06015
 596,0.00366409,-0.09203694,-0.05402167,-0.12023491,0.15293869,0.063575
 26,0.44272730,0.00402931,0.01200150,0.00376067,-0.11631581,0.02916528,
 0.00549529,-0.03689229,0.02218894,-0.01244167,-0.00224121,-0.00208804,
 0.00215660,-0.00853070,-0.00151257,-0.00638225,0.00276466,-0.00983785,
 0.00093293,-0.00275111,0.00452951,-0.00058113,-0.01671016,-0.02329781,
 0.01053408,0.01050519,0.00532509,0.01985226,0.00044388,-0.00089179,0.0
 0567724,0.00263707,0.00607245,-0.00404531,0.00111937,-0.00287330,-0.00
 127244,0.40418345,0.01799465,-0.02865700,-0.01372265,0.01289235,-0.064
 09071,-0.03619354,0.00872520,-0.00225134,0.01199453,0.00351670,0.00817
 960,-0.00080500,-0.00674621,0.00005309,-0.00407010,0.00065189,0.000902
 42,-0.00545011,-0.00099595,0.01090133,-0.00402753,-0.01749360,-0.01211
 934,0.01519433,0.00819342,-0.00512681,0.00540864,-0.00050879,0.0083906
 4,0.00080715,0.00033934,-0.00855892,-0.00233405,0.00481789,0.00067766,
 0.00841967,0.08470093,0.26790147,0.00768410,-0.01762299,-0.01144153,0.
 00928301,-0.04210604,-0.05642780,-0.00265965,0.00990752,0.00495621,-0.
 00407480,0.00451783,-0.00314144,-0.00285650,-0.00224893,-0.00580392,-0
 .00354793,-0.00381487,0.00565104,0.00186245,-0.00276883,-0.00474968,0.
 01573895,0.01763616,-0.00040807,0.01153650,0.01542005,-0.03175363,-0.0
 0249613,-0.00828756,0.00806226,-0.00301619,0.01448921,0.00100442,-0.00
 269693,-0.00033398,-0.00449323,0.00276784,0.15190564,0.58083989,-0.016
 68341,0.02771234,0.00355374,-0.04493082,-0.00640228,-0.00215522,0.0053
 8368,-0.00245284,0.00979721,-0.00104127,0.00847937,-0.00058398,-0.0016
 3378,-0.00131839,-0.01029824,0.00640030,0.00071307,0.00621501,-0.00359
 875,-0.01148057,0.01197108,-0.04540117,-0.03526891,0.03356562,0.004647
 42,0.00603657,-0.00636602,0.00288697,-0.00189899,-0.00681953,-0.002855
 41,-0.00785949,0.00265567,0.00172214,0.00364329,0.00089269,-0.15724106
 ,-0.07712853,0.00471684,0.35877893,0.02466011,0.00074051,-0.00044601,-
 0.00276106,0.00623218,0.00069716,0.00224645,-0.00333417,-0.00093673,-0
 .00008699,-0.00409600,-0.00260147,0.01001556,-0.00181203,0.01111691,-0
 .01024569,0.00652266,-0.00048574,0.00073619,-0.01940750,0.02750924,-0.
 02922752,-0.07293594,0.00597242,0.00403746,0.00057307,-0.01083522,-0.0
 0882511,0.00319681,-0.00464959,-0.00205972,-0.01149776,-0.00181179,-0.
 00079779,-0.00368874,0.00359912,-0.06488699,-0.09801109,-0.00588472,0.
 04342252,0.51338203,0.01238953,-0.01044803,-0.01069366,0.00321720,0.00
 545919,0.00930317,0.00639593,-0.00278641,0.00133971,-0.00021351,0.0054
 0371,0.00249652,-0.00402557,-0.00098563,-0.00150359,0.00078973,-0.0001
 7588,0.00393080,0.00022414,0.02873325,-0.01158787,0.01791656,0.0035699
 7,-0.11874090,-0.00466689,-0.00379281,-0.04176606,0.00231219,-0.003286
 00,0.00330986,-0.00018196,-0.00313560,0.00005196,0.00850268,-0.0008809
 7,0.00474705,0.01248748,-0.03198748,-0.07013423,-0.10964237,0.18599340
 ,0.38188596,0.00066974,-0.00007229,0.00547548,0.00937568,0.01048938,0.
 02098335,-0.03087740,0.02223481,0.00514126,-0.00019125,-0.00847591,0.0
 0189021,0.00173583,0.00374051,0.00109500,0.00309421,-0.00265873,-0.003
 71096,-0.00086860,0.00048143,0.00167380,-0.02368476,-0.03091490,0.0015
 6922,-0.09803265,-0.04334506,0.00952556,0.01010188,-0.00046329,0.00084
 782,0.00050905,0.00823682,-0.00443365,-0.00883974,-0.00491895,-0.00662
 764,-0.11538154,-0.00764275,-0.02431251,0.00068534,-0.00822608,-0.0288
 9516,0.43769034,-0.00445329,0.01040132,-0.00016835,0.00449172,-0.01414
 356,-0.00487660,0.01900645,-0.00746513,-0.00574819,-0.00223824,0.00865
 353,-0.00220262,-0.00453218,-0.00383087,-0.00847140,0.00356191,-0.0128
 0606,0.00677608,-0.00708372,0.00354525,-0.00184351,-0.01435167,-0.0227
 2313,-0.00551449,-0.02700512,-0.05183649,0.03191361,-0.00376737,-0.019
 43625,0.01768862,-0.00279868,0.00739424,0.00471839,0.00157287,0.001420
 67,-0.00175019,-0.04188536,-0.01987706,-0.09367874,0.00615953,0.000096
 13,-0.01102592,0.00199431,0.18156392,-0.00431295,0.00555724,0.00516716
 ,0.01779926,-0.01671736,-0.02256006,0.01214795,-0.00650558,0.00929472,
 0.00238634,-0.00315188,-0.00501764,-0.00027500,-0.00048256,-0.00013019
 ,-0.00006076,-0.00870675,0.00405106,0.00060583,-0.00848168,-0.00007963
 ,0.00474053,-0.00064572,0.01166138,0.00454790,0.03810633,-0.08825772,0
 .00539859,0.02258392,-0.02694324,-0.00398301,0.00191261,0.00203438,-0.
 00445582,-0.00231631,-0.00629279,-0.01897525,-0.07857771,-0.39602706,-
 0.02120036,-0.02843061,-0.01920408,0.04509063,0.02601437,0.63850072,0.
 00032618,-0.00252187,-0.00768330,0.00856404,-0.00628966,-0.00437139,-0
 .07138244,0.04861174,0.01957725,-0.01054061,0.02377763,0.01201710,0.00
 122830,-0.00126730,0.00172884,-0.00610327,0.00901414,-0.00212831,0.001
 16312,-0.00654186,0.00122771,0.00346198,0.00797240,0.00682576,-0.04241
 681,-0.01128983,-0.00132272,-0.00058525,-0.02440336,0.01518218,0.00297
 315,0.00061982,0.00578505,0.00148941,-0.00012579,-0.00627990,0.0036614
 6,-0.01605587,-0.02237422,-0.00820450,-0.00212541,-0.00326167,-0.19433
 009,0.03553992,-0.02251685,0.40705661,0.00720840,0.00835092,0.00021305
 ,-0.00429220,-0.00465988,-0.00781974,0.03650844,-0.05644409,-0.0176412
 4,0.00776763,-0.03114536,-0.01337178,0.00585098,-0.00223346,0.00091667
 ,0.00207072,-0.00414551,0.00465480,0.00198080,-0.00582464,0.00567475,0
 .00195307,0.00127802,0.00402159,-0.01100439,0.00222396,-0.00001518,-0.
 01920707,-0.01162935,0.00112314,0.00871216,0.00977023,0.00101669,-0.00
 834485,-0.00943394,-0.01160574,-0.00468480,0.00457701,0.00849474,-0.00
 549143,0.00942307,-0.00343836,0.02657552,-0.04615199,-0.00097876,-0.07
 883814,0.30282642,-0.00191558,0.00181303,0.00098350,-0.00152188,-0.014
 33559,-0.04016781,0.00833397,-0.02044615,-0.11029842,0.00707489,-0.017
 38347,0.00674919,0.00609280,0.00688427,0.00386699,-0.00291305,0.005274
 25,-0.00330802,0.00075364,-0.00207601,0.00235273,0.00483253,0.00540484
 ,-0.00147472,0.00629733,-0.00179437,0.01087650,0.01789241,0.01268029,-
 0.01533238,-0.00297723,-0.00193113,0.00372911,-0.00061192,0.00263557,0
 .00262109,-0.02962461,-0.01073413,-0.02654803,-0.00215312,-0.00594938,
 -0.00948455,-0.01927330,0.02671931,-0.08652636,-0.01273448,-0.18426234
 ,0.54755058,-0.13015119,0.00375443,0.00717302,-0.03163399,-0.02265041,
 -0.01593132,0.00108351,-0.00341737,0.00768208,-0.00087765,-0.00289931,
 -0.00043378,0.00610075,-0.00017880,0.00614179,-0.02719044,0.02003156,-
 0.00848423,0.00267405,-0.01177904,0.01307534,-0.00683450,0.01576183,0.
 01256174,0.00192952,0.00028947,0.00331019,-0.00095302,0.00269757,-0.00
 619349,0.00130622,-0.00469613,-0.00101812,-0.00141880,-0.00004099,0.00
 378803,0.02192130,-0.00164603,-0.00622994,-0.09634470,0.03863412,0.107
 83787,-0.01172857,0.00156960,-0.00409387,0.00316153,-0.00709127,-0.002
 98550,0.34323193,-0.00320400,-0.08540719,0.00421906,-0.02476297,0.0002
 7709,-0.00573328,-0.00454749,0.00075701,-0.00436104,-0.00405779,-0.012
 82769,-0.00296795,0.00328370,-0.00267345,0.00605229,0.02676239,-0.0086
 9156,0.00017887,-0.00504044,0.00187601,0.01574942,0.00930685,0.0099082
 0,-0.01569239,-0.00272751,0.00398439,0.00775420,-0.00452028,0.00182664
 ,-0.00716486,0.00149520,0.00096960,0.00133916,-0.00258630,-0.00102960,
 -0.00789333,-0.01031427,-0.03584908,-0.02660539,0.06409898,-0.30423383
 ,-0.13716988,-0.01147011,-0.00229803,0.00476392,0.00648529,-0.00775081
 ,0.00063128,-0.05619398,0.60023002,0.02301792,0.00617030,-0.02359020,-
 0.00030626,0.00105506,-0.00306067,-0.00227549,-0.00484943,0.00074816,0
 .00418354,0.00196711,-0.00009500,-0.00415836,0.00253998,0.00647430,-0.
 00796316,-0.00204636,-0.00076916,0.01027090,0.01956705,-0.03312222,0.0
 0024194,-0.01399905,-0.03011681,0.00358646,-0.00405168,0.01037175,-0.0
 1118762,0.00743903,-0.00646658,-0.00232835,-0.00836910,-0.00451221,0.0
 0796606,-0.00398907,0.00584248,-0.00578977,-0.00394544,-0.00460602,0.0
 9156319,-0.15957453,-0.13005028,0.00945117,-0.00067975,-0.00032126,-0.
 00101082,0.00440054,0.00027785,-0.14717754,0.07378712,0.31469726,-0.02
 073622,-0.02684843,0.01145253,-0.00120461,0.00625228,0.00471977,-0.004
 81515,0.00347905,-0.00457101,-0.00102436,-0.01224585,-0.00864068,0.008
 87833,0.00734789,0.00247287,-0.03864576,-0.00069355,-0.00472745,-0.039
 18380,0.02756149,0.03588577,-0.00368929,0.01104802,0.00342950,0.007700
 51,-0.00015658,-0.00250711,-0.00207710,0.00198197,0.00187368,-0.002544
 08,0.00070855,-0.00508857,0.00158110,-0.00629101,0.00205947,0.00019264
 ,-0.00427266,0.00972956,0.00482594,0.01292225,-0.00572396,-0.00259720,
 0.00087945,0.00031731,0.00653062,-0.00184632,0.00106174,-0.08219028,-0
 .03496628,0.03817809,0.46407264,-0.02226214,-0.00808884,0.00727717,0.0
 0777828,0.00623388,0.00553709,-0.00413685,0.00279625,-0.00403597,0.002
 49729,-0.00121541,0.00046720,-0.00422559,0.00486548,0.00204838,0.00563
 328,0.00665694,-0.01208126,0.02213715,-0.08114840,0.00188860,0.0098800
 3,-0.02354718,-0.02770430,0.00118123,-0.00405289,-0.00120788,0.0044349
 7,-0.00690446,0.00900601,0.00410381,0.00667710,0.00240533,-0.00614791,
 0.00906960,0.00735330,-0.00311273,-0.01165591,-0.00491103,-0.00676612,
 -0.04024032,-0.01821321,0.00298448,-0.00051083,0.00346027,-0.00681598,
 0.00632923,-0.01027887,-0.01592372,-0.14949270,0.06829257,-0.17625383,
 0.47701426,0.01043625,0.01346388,-0.00016616,0.00098533,0.00045739,-0.
 00174571,-0.00299810,0.00452100,-0.00035191,-0.00599227,-0.00854965,-0
 .00302961,0.00680335,0.00222709,0.00282773,0.00703716,-0.01460257,0.00
 474375,0.02430069,-0.00980717,-0.11773333,0.00099212,-0.02037995,-0.00
 868867,0.00595028,0.00632599,0.00585677,-0.00295692,0.00469683,-0.0046
 0806,0.00414835,0.00513633,-0.00127480,-0.01216220,-0.00164617,-0.0451
 2116,0.00536703,-0.00451555,0.00310254,-0.00908418,-0.00606826,0.01691
 054,-0.01253944,-0.00217849,-0.00121932,0.00794174,-0.01501070,-0.0012
 6917,0.04882216,0.04976497,-0.09581788,-0.07157839,-0.10397377,0.31578
 018,-0.00564915,-0.00144856,0.00132929,-0.00022574,-0.00119676,-0.0006
 7065,0.00471818,-0.00807772,0.00027494,0.00480267,0.00547394,-0.003534
 46,-0.02870435,-0.01837070,0.01044177,0.00458765,-0.01063127,0.0190678
 4,-0.02669737,0.02226749,-0.00175746,0.00355264,0.00028859,-0.00338382
 ,-0.00431130,-0.00133612,-0.00354903,-0.00055229,-0.00839424,0.0006571
 7,0.00918848,0.00522394,0.01111851,-0.09111123,0.04574019,0.00576572,0
 .00438260,0.00797694,0.00384212,-0.00085569,-0.00037985,-0.00189196,0.
 00022850,0.00640915,-0.00779072,-0.00202410,-0.00255589,0.00559133,-0.
 00410018,0.00916473,0.00383736,-0.01112767,0.02309212,-0.02381403,0.61
 430558,-0.00171181,0.00863329,-0.00263297,-0.00745639,-0.00381244,-0.0
 0603777,0.00592005,-0.01277853,0.00481686,0.00071684,0.01036349,-0.004
 39885,-0.00558545,-0.01407154,0.00350867,-0.00928479,-0.00735792,0.017
 51365,0.01806896,-0.01947984,-0.00028514,0.00515275,0.00739470,-0.0018
 4697,-0.00201354,0.00141931,0.00119064,-0.00043028,0.00353030,-0.00731
 648,-0.00270070,-0.02279400,-0.01516047,0.03654814,-0.05202556,-0.0204
 5353,0.00997871,-0.00433783,0.00026343,-0.00605753,-0.00445830,0.00366
 146,0.01091105,0.00119181,0.00865287,-0.00812636,0.00984242,0.00206095
 ,0.00685304,-0.00099208,0.01039719,0.00395989,-0.01318121,0.01233150,0
 .02452452,0.18146066,0.00083041,-0.00894653,0.00044814,0.00073200,0.00
 358752,0.00183364,-0.00341273,-0.00421189,0.00241104,0.00625257,0.0009
 4462,0.00103578,0.01365760,0.00714791,0.01542460,0.01209735,0.02057537
 ,-0.02625412,-0.00634204,0.00389969,0.00995605,-0.00383262,0.00842147,
 -0.00099897,-0.00575617,-0.00527323,-0.01081263,0.00174967,-0.00115869
 ,-0.00041012,0.00790369,-0.03050934,-0.02117369,0.01071552,-0.03533212
 ,-0.09495540,0.01286155,0.00138147,0.01139555,-0.00647914,-0.00809868,
 0.00067500,0.00204445,0.01234636,-0.00091949,-0.00015532,0.01127928,0.
 00346252,0.00112925,0.00883220,-0.00303571,-0.01930857,0.02501489,0.00
 637586,0.07940487,0.00703555,0.46213651,0.00250489,-0.02167250,0.00964
 201,0.00232493,0.00700948,0.00631698,-0.00243681,0.00345683,-0.0022288
 2,0.00275013,0.00227073,-0.00145204,-0.03733324,-0.01284570,-0.0104488
 8,-0.11444697,-0.02931844,0.00026682,-0.02097659,0.01708621,0.01386623
 ,0.00317338,-0.00199136,-0.00292413,0.00384579,0.00256444,-0.00019442,
 0.00195578,-0.00082102,0.00092118,-0.00344793,0.00381009,0.00348996,0.
 00800071,0.00038240,0.01607683,0.00148707,-0.00340924,-0.00003012,-0.0
 0434340,-0.00548932,-0.00416347,0.00230185,0.00362939,0.00641895,-0.00
 412999,0.00054490,-0.01090039,0.00637024,0.02977928,-0.01133986,-0.286
 35781,0.17381593,0.00937903,-0.08260173,0.01952465,0.00244539,0.547108
 20,-0.01465928,-0.03110978,0.00509784,-0.00020828,-0.00222861,0.005932
 23,0.00417953,-0.00412943,0.00289903,-0.00119123,0.00836234,0.00709156
 ,-0.00680668,-0.00465876,-0.00574296,-0.02423183,-0.05628742,0.0324928
 6,0.00475907,-0.01172042,-0.01854968,-0.00065006,0.00974721,0.00876292
 ,-0.00983699,-0.00944541,-0.01037079,0.00517973,-0.00582975,0.00302418
 ,0.00358204,0.00126769,0.00265700,0.00202842,0.00220110,-0.01087469,0.
 00609471,-0.00094785,0.00126535,-0.00441087,-0.00316612,0.00142045,0.0
 1158402,0.00979282,-0.00038810,-0.00708175,0.01209901,-0.00082233,0.01
 949788,-0.02190417,0.00012795,0.18600152,-0.16159577,0.08253497,-0.005
 97130,-0.04616278,0.02582084,-0.16607010,0.30314760,0.01460656,0.02005
 453,-0.00637780,0.00193516,0.00007513,0.00276146,-0.00140471,0.0098167
 6,-0.00696978,-0.00722231,-0.00211308,-0.00145505,-0.01332416,-0.00891
 461,0.00571734,0.01149974,0.04383636,-0.06773448,0.01119798,-0.0215264
 6,0.00511442,0.00583230,0.00022798,0.00349938,-0.00580405,0.00039697,0
 .00027161,0.00133723,-0.00679758,0.00158373,0.00546736,0.00885621,0.00
 544768,0.00846377,-0.01148747,-0.03950394,-0.01005723,0.00209669,-0.00
 495894,0.01377379,0.00807937,-0.00605700,0.00065375,-0.00760462,-0.000
 79163,-0.00533447,-0.00712288,-0.00722377,-0.01808016,0.01957052,-0.00
 230374,-0.00265973,0.04842538,-0.08432356,-0.00072479,0.03990185,-0.19
 848398,0.01453959,-0.11262904,0.40797557,-0.00273858,0.00483099,-0.004
 18284,-0.00418323,-0.00190861,-0.00200019,0.00600991,-0.00187792,-0.00
 290160,-0.01305183,-0.01959663,0.00443571,-0.06138569,-0.04681284,0.01
 989885,0.00626362,0.00549443,0.00575321,0.00719652,-0.00796820,-0.0011
 6574,0.00238951,0.01306697,-0.00307803,-0.00354375,0.00021690,-0.00360
 506,-0.00492197,-0.00357100,0.00144441,-0.00586795,0.02176511,0.017769
 54,-0.03606719,0.01419738,0.00249067,0.00589172,-0.00534759,-0.0019241
 9,-0.00460953,0.00043762,0.00575869,0.00802313,-0.00165352,0.00455936,
 -0.00283238,0.00009897,-0.00088517,0.00154716,-0.00114119,0.00203466,-
 0.00028833,-0.00652802,0.00200209,-0.37791359,-0.08345394,-0.07526999,
 -0.01572097,0.00921926,-0.02617716,0.57358925,-0.00144684,0.00815621,0
 .00328789,-0.00272565,0.00006061,-0.00738855,-0.00546925,0.00090847,-0
 .00038630,-0.01691736,-0.02853022,0.01509382,-0.03790172,-0.06389523,0
 .00558331,0.01004257,-0.00222680,0.01079572,0.00088310,0.00838985,-0.0
 0038297,-0.00236859,-0.00855937,-0.00011780,0.00735718,0.00067905,0.00
 632772,-0.00374401,0.01091222,-0.00175156,0.01828567,-0.01219556,-0.01
 431537,0.00381725,-0.00515272,0.00905086,-0.00538958,-0.01226453,-0.00
 648852,0.00391723,0.00687985,-0.00111296,-0.00017491,-0.00433274,0.008
 11079,0.00270936,-0.00095221,-0.00293739,-0.00123534,-0.00410809,-0.00
 031618,0.00448200,-0.00060056,-0.00588263,-0.07512754,-0.01967939,-0.0
 2248625,-0.00746108,0.00455544,-0.01778996,0.13234789,0.26770884,0.002
 06168,-0.00120221,-0.00263353,-0.00553628,-0.00190345,-0.01014184,0.00
 154796,-0.01036671,0.00238853,0.00049237,0.00843576,0.00556225,0.01612
 270,0.02044157,-0.11122410,-0.00402383,0.02363091,-0.03823074,0.006970
 29,-0.00246459,0.00131983,-0.00407737,0.00870298,0.00125350,-0.0021748
 1,-0.00287318,0.00017931,-0.00097868,0.00390489,-0.00259315,0.01258633
 ,-0.01956208,-0.01115635,0.01082309,0.00815974,0.01484726,0.00946426,-
 0.00651907,0.00735117,0.00122572,-0.01240989,0.00895230,0.01358452,0.0
 0983102,0.00775256,-0.01089262,0.00623905,-0.00066944,-0.00975979,-0.0
 0737799,-0.00216541,0.00708738,0.00892944,-0.01247393,-0.06997539,-0.0
 5899461,-0.13358610,-0.03341669,-0.00291282,-0.00718945,0.03572837,0.1
 1242673,0.41124253,0.00251479,0.00368769,0.00047396,0.00115988,-0.0007
 0719,-0.00347898,0.00271318,-0.00032118,0.00006325,-0.01394447,-0.0154
 7394,0.01297075,0.00710606,0.00661006,0.01331516,-0.00153717,-0.002267
 72,0.00505272,0.00410950,-0.00286739,0.00251493,-0.00050395,-0.0016166
 0,0.00024369,0.00290721,-0.00155657,0.00875864,-0.01350687,0.03040297,
 -0.00176420,-0.12580635,0.01033259,0.00234370,-0.03801073,-0.00483298,
 -0.01297430,0.00716714,-0.00184019,0.00804112,-0.00332700,-0.00978015,
 -0.00735219,0.00220330,0.00474630,-0.00130021,-0.00778632,0.00225995,-
 0.00484249,-0.00860356,0.00187302,-0.00397165,0.00192460,0.00177955,-0
 .00622054,-0.00916808,-0.01206383,-0.03082689,-0.00844145,-0.00230036,
 -0.00327786,-0.07652592,-0.01665851,0.02813505,0.42284971,-0.00254145,
 -0.00407650,-0.00057637,0.00900397,-0.00182945,0.01193187,0.00149811,0
 .00648810,-0.01015597,-0.00510649,0.00082960,0.02405058,0.00124177,0.0
 0621299,-0.00265261,-0.00133577,-0.00332157,0.00204712,-0.00288567,0.0
 0319729,-0.00956464,-0.00140194,-0.01149129,-0.00235494,0.00365534,-0.
 00369749,-0.00011252,0.02689120,-0.01950211,0.00598992,0.01154550,-0.0
 7306540,-0.02750048,-0.01137317,0.00060780,0.00192984,-0.01226441,0.00
 689392,-0.00192626,-0.00099750,0.01043190,-0.01016519,-0.00789140,-0.0
 0444054,-0.00191628,0.00899197,-0.00318461,-0.00381861,0.00900546,0.01
 672903,0.00098686,-0.00249097,-0.00731202,0.00822915,-0.02636968,0.000
 12652,-0.01348516,-0.00539534,0.00940123,-0.00320356,0.00664236,-0.098
 29977,-0.06500752,0.17430305,0.51324535,0.00011367,0.00933419,-0.00107
 229,-0.00977051,-0.00145753,-0.00429464,0.00550912,0.00066822,0.007623
 23,0.00413342,0.02519954,-0.01351536,0.00793689,-0.00531358,-0.0427064
 5,0.00840970,-0.00294317,0.00825436,-0.00659429,-0.00250117,0.00207136
 ,0.00310355,-0.00829466,-0.00229110,0.00112458,0.00340984,0.00357955,0
 .00996799,-0.00577478,-0.00160304,0.01796569,-0.03392141,-0.03838595,-
 0.01464993,0.00523180,0.00085136,0.00352803,0.00363982,-0.00281458,-0.
 00737780,-0.00291902,-0.00614073,-0.00590037,-0.00524626,-0.00238177,0
 .01309451,-0.00409314,-0.00258912,-0.00176278,0.00637774,0.00330801,0.
 00157421,-0.00225986,0.00086333,-0.02308565,0.00396736,-0.00943468,-0.
 00217257,-0.00607025,-0.00925336,0.02032887,-0.08198942,-0.15063869,-0
 .09743858,0.07810985,0.31835505,-0.00021527,-0.00605306,-0.00582011,0.
 00132022,0.00077849,0.00530705,0.00263242,-0.01416869,0.01513361,-0.00
 497712,0.01833624,0.01344261,-0.00279827,-0.00073182,0.00069014,0.0009
 0896,0.00377539,-0.00190975,-0.00430177,0.00425131,-0.00339947,-0.0011
 5434,0.00491254,0.00441164,-0.04152577,-0.00034605,-0.02059879,-0.1265
 1461,-0.01490192,0.00751875,-0.00940387,-0.02218393,-0.00009238,0.0053
 2052,0.00621489,0.00549360,-0.01373675,-0.00663693,-0.00059650,0.00177
 356,0.00851904,-0.00627677,0.01388587,0.01131059,-0.01892470,-0.092828
 70,0.04547329,0.04722133,0.01073186,0.00843785,0.00678023,0.00646185,-
 0.00546738,0.00957088,0.00100528,-0.00233396,-0.01181013,-0.00270849,-
 0.01433751,0.00616722,0.00014981,-0.00361415,0.00536012,0.01922089,-0.
 00854963,-0.00626312,0.34824933,-0.00002646,-0.00121671,0.00254772,0.0
 0281285,0.00486815,-0.00377347,-0.01296414,0.00671268,0.00316341,0.011
 40604,-0.00820224,-0.02048520,0.00397588,0.00624631,0.00868168,-0.0031
 7771,0.00278614,-0.00483948,0.00799509,-0.00691312,0.00607711,0.001579
 70,0.00668293,0.00446234,0.00847106,0.00905893,-0.00462882,-0.00236548
 ,-0.08110620,0.02214780,-0.02911411,-0.02346758,0.00443944,-0.00142283
 ,-0.00403542,0.00094694,0.01005468,-0.00062657,-0.00470004,-0.00258529
 ,-0.00733719,0.00133588,0.02009942,-0.01320409,0.02746416,0.01428894,-
 0.16132595,0.17969411,-0.00283055,0.00389829,-0.00227491,-0.00120956,-
 0.01400119,-0.00578323,0.00284179,-0.00052508,0.00356910,-0.00875578,0
 .00635260,-0.00862913,-0.00423932,-0.01166157,-0.00399133,-0.01668204,
 -0.04020885,-0.01005638,-0.06823779,0.47689356,-0.00851194,-0.01362308
 ,-0.00383398,0.00097020,0.00763120,0.01038533,0.00332471,-0.00348803,-
 0.03659857,0.01446514,-0.02384459,-0.01582873,0.00443159,0.00621410,-0
 .00018116,-0.00346235,0.00426145,-0.00604951,0.00143092,0.00283901,-0.
 00238175,-0.00483106,0.00167061,-0.00269142,-0.00632651,-0.00650477,-0
 .00199476,0.01908475,0.02521666,-0.03085695,0.00238322,0.00698209,-0.0
 0305544,-0.00297793,0.00106567,0.00825461,0.00445733,0.00329143,0.0009
 5591,0.00155544,-0.00086619,0.00103464,-0.01448589,0.00625884,-0.01864
 002,0.03529716,0.19815664,-0.27804632,0.00843043,0.00226478,-0.0033682
 7,-0.00026696,-0.00223665,0.00828718,0.00101814,0.00044245,-0.00481696
 ,-0.00070326,-0.00466535,0.00793411,0.00971533,-0.00506619,0.00315588,
 -0.00289736,0.01157117,0.00246838,-0.09439466,-0.19288369,0.43218842,-
 0.00082549,0.00246479,0.00418478,0.00611161,0.00252007,-0.00415385,0.0
 0132648,-0.00584665,-0.00237888,-0.03305521,0.00531165,0.04174800,-0.0
 0105909,0.00534424,0.00558023,-0.00025263,-0.00409806,-0.00253049,-0.0
 0300669,0.00679586,-0.01160204,-0.00369587,-0.00732281,-0.00327360,0.0
 0336096,-0.00390965,0.00889121,-0.03614002,0.02151025,0.00268431,-0.03
 174241,-0.01668998,-0.00456049,0.00877622,-0.00402395,0.00494800,-0.00
 058623,-0.00008498,0.00161312,0.00396618,-0.00073963,-0.00153654,-0.00
 397294,0.00889794,0.00387683,0.00354809,-0.00364848,-0.01181325,0.0019
 6881,0.00484534,-0.00360265,-0.00568657,-0.00167785,0.00360959,-0.0017
 2913,-0.00094002,0.01136928,0.00112242,0.00563007,-0.00140782,-0.00140
 975,-0.00360771,-0.01035442,-0.16671439,-0.16417528,0.07822540,-0.1114
 9561,0.07008563,0.03229356,0.37119125,-0.00215085,-0.01282259,-0.00454
 048,0.00531511,-0.00270182,0.00439197,-0.00495781,-0.00859996,0.026291
 37,0.00469379,-0.08541860,-0.00242359,-0.00091313,0.00019996,-0.025445
 79,-0.00339687,0.00075584,-0.00528021,-0.00616703,0.00183352,-0.005779
 68,0.00102325,0.00097390,0.00173275,-0.00725949,-0.00101286,-0.0040716
 9,0.01651450,0.00180810,-0.00194329,-0.01709734,0.00996018,0.00610537,
 0.00812044,0.00396061,-0.00120414,-0.00707231,-0.00410309,-0.00252203,
 0.00593583,0.01674078,0.00302701,0.00692263,-0.00100292,0.01067282,0.0
 1347199,-0.02183849,0.03297189,0.01248800,-0.00319800,0.00736473,0.000
 65069,0.00390496,0.00870905,0.00685624,-0.00230602,-0.01035437,-0.0006
 4444,-0.00774077,0.00648063,-0.02421910,-0.03579177,-0.01511662,-0.147
 02650,-0.30373412,0.03690226,0.05555317,-0.14966782,-0.02468754,0.0833
 5923,0.59980099,-0.00041167,-0.00243922,-0.00013810,0.00613735,0.00028
 300,0.00645433,-0.00288006,0.01923702,-0.02935572,0.02589334,0.0047901
 0,-0.12022825,-0.01000497,-0.02203469,-0.03355795,0.00742477,-0.004269
 50,0.00209324,-0.00659508,0.00407924,-0.00442018,-0.00199077,-0.006217
 84,0.00047402,0.00472721,-0.00080616,0.00106113,0.00549442,-0.00783771
 ,0.00575798,0.00775215,0.01276912,-0.00527657,0.00465963,-0.00051151,0
 .00352860,-0.01017293,-0.00125702,-0.00001085,0.00067397,0.00900020,-0
 .00927457,0.00115273,0.00872255,-0.00314973,-0.01861122,0.01916890,0.0
 0046802,0.00219863,0.01368059,0.00168161,0.00523056,-0.00320283,0.0130
 7539,-0.00217110,0.00138236,-0.01027286,-0.00338832,-0.00610117,0.0023
 2119,-0.01072978,-0.00226478,0.01869761,0.09443228,0.00759377,-0.06025
 287,0.04298917,-0.00248399,-0.06632060,-0.14181029,-0.04128042,0.28664
 512\\0.00014646,-0.00015313,0.00010977,0.00006102,0.00000096,0.0000188
 2,-0.00002193,0.00012795,0.00002345,-0.00008173,0.00007921,0.00000610,
 0.00000682,-0.00007341,0.00002680,-0.00003646,0.00003729,-0.00005578,0
 .00004840,-0.00003663,-0.00009230,0.00011080,0.00000154,-0.00021791,-0
 .00039760,0.00010282,-0.00022923,-0.00000319,-0.00009186,0.00003895,0.
 00021464,0.00014304,-0.00005257,0.00012002,-0.00013654,0.00040725,-0.0
 0011725,-0.00008148,-0.00006039,0.00012160,-0.00011784,0.00049714,0.00
 007426,0.00027994,-0.00007323,0.00000963,-0.00032662,-0.00018413,-0.00
 036728,0.00013547,-0.00020388,0.00002886,-0.00016948,-0.00003813,0.000
 07634,-0.00027446,-0.00000375,0.00008620,0.00020717,-0.00001503,0.0000
 5536,0.00015596,0.00001415,-0.00041207,0.00009167,-0.00015105,0.000150
 78,0.00022288,0.00001808,0.00012633,-0.00012446,0.00021688\\\@


 WE ARE PERHAPS NOT FAR REMOVED FROM THE TIME WHEN WE SHALL BE ABLE TO SUBMIT
 THE BULK OF CHEMICAL PHENOMENA TO CALCULATION.

            -- JOSEPH LOUIS GAY-LUSSAC
               MEMOIRES DE LA SOCIETE D'ARCUEIL, 2, 207 (1808)
 Job cpu time:       0 days  1 hours 23 minutes 24.4 seconds.
 File lengths (MBytes):  RWF=    365 Int=      0 D2E=      0 Chk=     12 Scr=      1
 Normal termination of Gaussian 09 at Mon Nov 10 06:44:47 2025.
