 Entering Gaussian System, Link 0=/apps/GAUSSIAN/G09_RevD01/g09/g09
 Input=C2N.com
 Output=C2N.log
 Initial command:
 /apps/GAUSSIAN/G09_RevD01/g09/l1.exe "/scratch/tmp/3419170/Gau-179604.inp" -scrdir="/scratch/tmp/3419170/"
 Entering Link 1 = /apps/GAUSSIAN/G09_RevD01/g09/l1.exe PID=    179605.
  
 Copyright (c) 1988,1990,1992,1993,1995,1998,2003,2009,2013,
            Gaussian, Inc.  All Rights Reserved.
  
 This is part of the Gaussian(R) 09 program.  It is based on
 the Gaussian(R) 03 system (copyright 2003, Gaussian, Inc.),
 the Gaussian(R) 98 system (copyright 1998, Gaussian, Inc.),
 the Gaussian(R) 94 system (copyright 1995, Gaussian, Inc.),
 the Gaussian 92(TM) system (copyright 1992, Gaussian, Inc.),
 the Gaussian 90(TM) system (copyright 1990, Gaussian, Inc.),
 the Gaussian 88(TM) system (copyright 1988, Gaussian, Inc.),
 the Gaussian 86(TM) system (copyright 1986, Carnegie Mellon
 University), and the Gaussian 82(TM) system (copyright 1983,
 Carnegie Mellon University). Gaussian is a federally registered
 trademark of Gaussian, Inc.
  
 This software contains proprietary and confidential information,
 including trade secrets, belonging to Gaussian, Inc.
  
 This software is provided under written license and may be
 used, copied, transmitted, or stored only in accord with that
 written license.
  
 The following legend is applicable only to US Government
 contracts under FAR:
  
                    RESTRICTED RIGHTS LEGEND
  
 Use, reproduction and disclosure by the US Government is
 subject to restrictions as set forth in subparagraphs (a)
 and (c) of the Commercial Computer Software - Restricted
 Rights clause in FAR 52.227-19.
  
 Gaussian, Inc.
 340 Quinnipiac St., Bldg. 40, Wallingford CT 06492
  
  
 ---------------------------------------------------------------
 Warning -- This program may not be used in any manner that
 competes with the business of Gaussian, Inc. or will provide
 assistance to any competitor of Gaussian, Inc.  The licensee
 of this program is prohibited from giving any competitor of
 Gaussian, Inc. access to this program.  By using this program,
 the user acknowledges that Gaussian, Inc. is engaged in the
 business of creating and licensing software in the field of
 computational chemistry and represents and warrants to the
 licensee that it is not a competitor of Gaussian, Inc. and that
 it will not use this program in any manner prohibited above.
 ---------------------------------------------------------------
  

 Cite this work as:
 Gaussian 09, Revision D.01,
 M. J. Frisch, G. W. Trucks, H. B. Schlegel, G. E. Scuseria, 
 M. A. Robb, J. R. Cheeseman, G. Scalmani, V. Barone, B. Mennucci, 
 G. A. Petersson, H. Nakatsuji, M. Caricato, X. Li, H. P. Hratchian, 
 A. F. Izmaylov, J. Bloino, G. Zheng, J. L. Sonnenberg, M. Hada, 
 M. Ehara, K. Toyota, R. Fukuda, J. Hasegawa, M. Ishida, T. Nakajima, 
 Y. Honda, O. Kitao, H. Nakai, T. Vreven, J. A. Montgomery, Jr., 
 J. E. Peralta, F. Ogliaro, M. Bearpark, J. J. Heyd, E. Brothers, 
 K. N. Kudin, V. N. Staroverov, T. Keith, R. Kobayashi, J. Normand, 
 K. Raghavachari, A. Rendell, J. C. Burant, S. S. Iyengar, J. Tomasi, 
 M. Cossi, N. Rega, J. M. Millam, M. Klene, J. E. Knox, J. B. Cross, 
 V. Bakken, C. Adamo, J. Jaramillo, R. Gomperts, R. E. Stratmann, 
 O. Yazyev, A. J. Austin, R. Cammi, C. Pomelli, J. W. Ochterski, 
 R. L. Martin, K. Morokuma, V. G. Zakrzewski, G. A. Voth, 
 P. Salvador, J. J. Dannenberg, S. Dapprich, A. D. Daniels, 
 O. Farkas, J. B. Foresman, J. V. Ortiz, J. Cioslowski, 
 and D. J. Fox, Gaussian, Inc., Wallingford CT, 2013.
 
 ******************************************
 Gaussian 09:  ES64L-G09RevD.01 24-Apr-2013
                10-Nov-2025 
 ******************************************
 %mem=12GB
 %nprocshared=32
 Will use up to   32 processors via shared memory.
 -----------------------------------------------------
 # opt freq b3lyp/6-31g(d,p) geom=connectivity scf=xqc
 -----------------------------------------------------
 1/14=-1,18=20,19=15,26=3,38=1,57=2/1,3;
 2/9=110,12=2,17=6,18=5,40=1/2;
 3/5=1,6=6,7=101,11=2,16=1,25=1,30=1,71=1,74=-5/1,2,3;
 4//1;
 5/5=2,8=3,13=1,38=5/2,8;
 6/7=2,8=2,9=2,10=2,28=1/1;
 7//1,2,3,16;
 1/14=-1,18=20,19=15,26=3/3(2);
 2/9=110/2;
 99//99;
 2/9=110/2;
 3/5=1,6=6,7=101,11=2,16=1,25=1,30=1,71=1,74=-5/1,2,3;
 4/5=5,16=3,69=1/1;
 5/5=2,8=3,13=1,38=5/2,8;
 7//1,2,3,16;
 1/14=-1,18=20,19=15,26=3/3(-5);
 2/9=110/2;
 6/7=2,8=2,9=2,10=2,19=2,28=1/1;
 99/9=1/99;
 ---
 C2N
 ---
 Symbolic Z-matrix:
 Charge =  0 Multiplicity = 1
 C                    -4.91485   0.71833   0.00006 
 C                    -2.88196   2.15091  -0.00005 
 C                    -5.14312   3.14968   0.00025 
 C                     0.15609   6.02857   0.00018 
 C                    -1.83508   4.61513   0.00018 
 C                     0.42184   3.57069  -0.00011 
 C                     1.01279   4.86216   0.00002 
 C                    -1.03037   3.44481  -0.00004 
 C                    -1.19201   5.91172   0.00026 
 C                    -5.71595   1.92368   0.00022 
 C                    -3.70465   3.30853   0.00014 
 C                    -3.49908   0.83018  -0.00009 
 N                    -3.17171   4.53688   0.00025 
 N                    -1.5582    2.22833  -0.00013 
 N                     1.15125   2.4633   -0.00021 
 N                    -2.70923  -0.23495  -0.00024 
 N                     2.34294   5.0152   -0.00004 
 N                    -5.51524  -0.4785    0.00007 
 C                     3.30385   1.42021  -0.00021 
 C                     5.29926   2.87936  -0.00013 
 C                     3.07946   3.89702  -0.00015 
 C                     2.46858   2.61488  -0.00022 
 C                     4.52379   3.98833  -0.00017 
 C                     4.71767   1.55403  -0.00009 
 N                     5.51524   0.47849   0.00006 
 N                     2.70923   0.23496  -0.00024 
 C                    -3.30384  -1.4202   -0.00019 
 C                    -5.29924  -2.87935  -0.00001 
 C                    -3.07945  -3.89703  -0.00012 
 C                    -2.46857  -2.61488  -0.00021 
 C                    -4.52379  -3.98833  -0.00006 
 C                    -4.71766  -1.55402  -0.00005 
 N                    -2.34294  -5.01519  -0.00006 
 N                    -1.15123  -2.46329  -0.00024 
 C                    -0.15609  -6.02857   0.00009 
 C                     1.83507  -4.61513   0.00013 
 C                    -0.42184  -3.57071  -0.00014 
 C                     4.91484  -0.71832   0.00009 
 C                     2.88195  -2.15091  -0.00004 
 C                     5.14311  -3.14968   0.00038 
 C                     5.71594  -1.92368   0.00032 
 C                     3.70464  -3.30854   0.0002 
 C                     3.49907  -0.83018  -0.00009 
 C                    -1.01278  -4.86216  -0.00005 
 C                     1.03039  -3.44482  -0.00008 
 C                     1.192    -5.91172   0.00018 
 N                     1.55819  -2.22833  -0.00018 
 N                     3.17171  -4.53688   0.00027 
 H                     4.9553    4.98336  -0.00022 
 H                     6.38195   2.94302  -0.00011 
 H                     0.64269   6.99786   0.00022 
 H                    -1.83805   6.78284   0.00042 
 H                    -5.73979   4.05538   0.00037 
 H                    -6.79348   1.80038   0.00031 
 H                    -6.38194  -2.94299   0.00008 
 H                    -4.95533  -4.98334  -0.00006 
 H                    -0.6427   -6.99786   0.00012 
 H                     1.83804  -6.78284   0.00033 
 H                     5.7398   -4.05537   0.00057 
 H                     6.79346  -1.80036   0.00048 
 

 GradGradGradGradGradGradGradGradGradGradGradGradGradGradGradGradGradGrad
 Berny optimization.
 Initialization pass.
                           ----------------------------
                           !    Initial Parameters    !
                           ! (Angstroms and Degrees)  !
 --------------------------                            --------------------------
 ! Name  Definition              Value          Derivative Info.                !
 --------------------------------------------------------------------------------
 ! R1    R(1,10)                 1.4473         estimate D2E/DX2                !
 ! R2    R(1,12)                 1.4202         estimate D2E/DX2                !
 ! R3    R(1,18)                 1.339          estimate D2E/DX2                !
 ! R4    R(2,11)                 1.4202         estimate D2E/DX2                !
 ! R5    R(2,12)                 1.4578         estimate D2E/DX2                !
 ! R6    R(2,14)                 1.326          estimate D2E/DX2                !
 ! R7    R(3,10)                 1.3532         estimate D2E/DX2                !
 ! R8    R(3,11)                 1.4472         estimate D2E/DX2                !
 ! R9    R(3,53)                 1.0846         estimate D2E/DX2                !
 ! R10   R(4,7)                  1.4472         estimate D2E/DX2                !
 ! R11   R(4,9)                  1.3531         estimate D2E/DX2                !
 ! R12   R(4,51)                 1.0846         estimate D2E/DX2                !
 ! R13   R(5,8)                  1.4203         estimate D2E/DX2                !
 ! R14   R(5,9)                  1.4473         estimate D2E/DX2                !
 ! R15   R(5,13)                 1.3389         estimate D2E/DX2                !
 ! R16   R(6,7)                  1.4203         estimate D2E/DX2                !
 ! R17   R(6,8)                  1.4577         estimate D2E/DX2                !
 ! R18   R(6,15)                 1.326          estimate D2E/DX2                !
 ! R19   R(7,17)                 1.3389         estimate D2E/DX2                !
 ! R20   R(8,14)                 1.3261         estimate D2E/DX2                !
 ! R21   R(9,52)                 1.0845         estimate D2E/DX2                !
 ! R22   R(10,54)                1.0846         estimate D2E/DX2                !
 ! R23   R(11,13)                1.339          estimate D2E/DX2                !
 ! R24   R(12,16)                1.326          estimate D2E/DX2                !
 ! R25   R(15,22)                1.326          estimate D2E/DX2                !
 ! R26   R(16,27)                1.326          estimate D2E/DX2                !
 ! R27   R(17,21)                1.3389         estimate D2E/DX2                !
 ! R28   R(18,32)                1.339          estimate D2E/DX2                !
 ! R29   R(19,22)                1.4577         estimate D2E/DX2                !
 ! R30   R(19,24)                1.4201         estimate D2E/DX2                !
 ! R31   R(19,26)                1.326          estimate D2E/DX2                !
 ! R32   R(20,23)                1.3532         estimate D2E/DX2                !
 ! R33   R(20,24)                1.4473         estimate D2E/DX2                !
 ! R34   R(20,50)                1.0846         estimate D2E/DX2                !
 ! R35   R(21,22)                1.4202         estimate D2E/DX2                !
 ! R36   R(21,23)                1.4472         estimate D2E/DX2                !
 ! R37   R(23,49)                1.0846         estimate D2E/DX2                !
 ! R38   R(24,25)                1.339          estimate D2E/DX2                !
 ! R39   R(25,38)                1.339          estimate D2E/DX2                !
 ! R40   R(26,43)                1.326          estimate D2E/DX2                !
 ! R41   R(27,30)                1.4577         estimate D2E/DX2                !
 ! R42   R(27,32)                1.4201         estimate D2E/DX2                !
 ! R43   R(28,31)                1.3532         estimate D2E/DX2                !
 ! R44   R(28,32)                1.4473         estimate D2E/DX2                !
 ! R45   R(28,55)                1.0846         estimate D2E/DX2                !
 ! R46   R(29,30)                1.4202         estimate D2E/DX2                !
 ! R47   R(29,31)                1.4472         estimate D2E/DX2                !
 ! R48   R(29,33)                1.3389         estimate D2E/DX2                !
 ! R49   R(30,34)                1.326          estimate D2E/DX2                !
 ! R50   R(31,56)                1.0846         estimate D2E/DX2                !
 ! R51   R(33,44)                1.3389         estimate D2E/DX2                !
 ! R52   R(34,37)                1.326          estimate D2E/DX2                !
 ! R53   R(35,44)                1.4472         estimate D2E/DX2                !
 ! R54   R(35,46)                1.3531         estimate D2E/DX2                !
 ! R55   R(35,57)                1.0846         estimate D2E/DX2                !
 ! R56   R(36,45)                1.4203         estimate D2E/DX2                !
 ! R57   R(36,46)                1.4473         estimate D2E/DX2                !
 ! R58   R(36,48)                1.3389         estimate D2E/DX2                !
 ! R59   R(37,44)                1.4202         estimate D2E/DX2                !
 ! R60   R(37,45)                1.4577         estimate D2E/DX2                !
 ! R61   R(38,41)                1.4473         estimate D2E/DX2                !
 ! R62   R(38,43)                1.4202         estimate D2E/DX2                !
 ! R63   R(39,42)                1.4202         estimate D2E/DX2                !
 ! R64   R(39,43)                1.4578         estimate D2E/DX2                !
 ! R65   R(39,47)                1.326          estimate D2E/DX2                !
 ! R66   R(40,41)                1.3532         estimate D2E/DX2                !
 ! R67   R(40,42)                1.4472         estimate D2E/DX2                !
 ! R68   R(40,59)                1.0846         estimate D2E/DX2                !
 ! R69   R(41,60)                1.0846         estimate D2E/DX2                !
 ! R70   R(42,48)                1.339          estimate D2E/DX2                !
 ! R71   R(45,47)                1.3261         estimate D2E/DX2                !
 ! R72   R(46,58)                1.0845         estimate D2E/DX2                !
 ! A1    A(10,1,12)            119.0914         estimate D2E/DX2                !
 ! A2    A(10,1,18)            119.7505         estimate D2E/DX2                !
 ! A3    A(12,1,18)            121.158          estimate D2E/DX2                !
 ! A4    A(11,2,12)            119.5551         estimate D2E/DX2                !
 ! A5    A(11,2,14)            122.0531         estimate D2E/DX2                !
 ! A6    A(12,2,14)            118.3918         estimate D2E/DX2                !
 ! A7    A(10,3,11)            121.3454         estimate D2E/DX2                !
 ! A8    A(10,3,53)            121.5793         estimate D2E/DX2                !
 ! A9    A(11,3,53)            117.0753         estimate D2E/DX2                !
 ! A10   A(7,4,9)              121.3424         estimate D2E/DX2                !
 ! A11   A(7,4,51)             117.0458         estimate D2E/DX2                !
 ! A12   A(9,4,51)             121.6118         estimate D2E/DX2                !
 ! A13   A(8,5,9)              119.1076         estimate D2E/DX2                !
 ! A14   A(8,5,13)             121.1616         estimate D2E/DX2                !
 ! A15   A(9,5,13)             119.7308         estimate D2E/DX2                !
 ! A16   A(7,6,8)              119.542          estimate D2E/DX2                !
 ! A17   A(7,6,15)             122.0402         estimate D2E/DX2                !
 ! A18   A(8,6,15)             118.4178         estimate D2E/DX2                !
 ! A19   A(4,7,6)              119.1156         estimate D2E/DX2                !
 ! A20   A(4,7,17)             119.7335         estimate D2E/DX2                !
 ! A21   A(6,7,17)             121.1509         estimate D2E/DX2                !
 ! A22   A(5,8,6)              119.5581         estimate D2E/DX2                !
 ! A23   A(5,8,14)             122.0318         estimate D2E/DX2                !
 ! A24   A(6,8,14)             118.4101         estimate D2E/DX2                !
 ! A25   A(4,9,5)              121.3344         estimate D2E/DX2                !
 ! A26   A(4,9,52)             121.6072         estimate D2E/DX2                !
 ! A27   A(5,9,52)             117.0584         estimate D2E/DX2                !
 ! A28   A(1,10,3)             121.3472         estimate D2E/DX2                !
 ! A29   A(1,10,54)            117.0807         estimate D2E/DX2                !
 ! A30   A(3,10,54)            121.5721         estimate D2E/DX2                !
 ! A31   A(2,11,3)             119.0989         estimate D2E/DX2                !
 ! A32   A(2,11,13)            121.1452         estimate D2E/DX2                !
 ! A33   A(3,11,13)            119.7559         estimate D2E/DX2                !
 ! A34   A(1,12,2)             119.5619         estimate D2E/DX2                !
 ! A35   A(1,12,16)            122.0415         estimate D2E/DX2                !
 ! A36   A(2,12,16)            118.3965         estimate D2E/DX2                !
 ! A37   A(5,13,11)            116.805          estimate D2E/DX2                !
 ! A38   A(2,14,8)             116.8033         estimate D2E/DX2                !
 ! A39   A(6,15,22)            116.8079         estimate D2E/DX2                !
 ! A40   A(12,16,27)           116.7994         estimate D2E/DX2                !
 ! A41   A(7,17,21)            116.8091         estimate D2E/DX2                !
 ! A42   A(1,18,32)            116.7999         estimate D2E/DX2                !
 ! A43   A(22,19,24)           119.5527         estimate D2E/DX2                !
 ! A44   A(22,19,26)           118.398          estimate D2E/DX2                !
 ! A45   A(24,19,26)           122.0493         estimate D2E/DX2                !
 ! A46   A(23,20,24)           121.3433         estimate D2E/DX2                !
 ! A47   A(23,20,50)           121.5985         estimate D2E/DX2                !
 ! A48   A(24,20,50)           117.0582         estimate D2E/DX2                !
 ! A49   A(17,21,22)           121.1523         estimate D2E/DX2                !
 ! A50   A(17,21,23)           119.7547         estimate D2E/DX2                !
 ! A51   A(22,21,23)           119.093          estimate D2E/DX2                !
 ! A52   A(15,22,19)           118.3958         estimate D2E/DX2                !
 ! A53   A(15,22,21)           122.0396         estimate D2E/DX2                !
 ! A54   A(19,22,21)           119.5647         estimate D2E/DX2                !
 ! A55   A(20,23,21)           121.3462         estimate D2E/DX2                !
 ! A56   A(20,23,49)           121.5921         estimate D2E/DX2                !
 ! A57   A(21,23,49)           117.0617         estimate D2E/DX2                !
 ! A58   A(19,24,20)           119.1001         estimate D2E/DX2                !
 ! A59   A(19,24,25)           121.1517         estimate D2E/DX2                !
 ! A60   A(20,24,25)           119.7482         estimate D2E/DX2                !
 ! A61   A(24,25,38)           116.8002         estimate D2E/DX2                !
 ! A62   A(19,26,43)           116.7992         estimate D2E/DX2                !
 ! A63   A(16,27,30)           118.3986         estimate D2E/DX2                !
 ! A64   A(16,27,32)           122.0487         estimate D2E/DX2                !
 ! A65   A(30,27,32)           119.5527         estimate D2E/DX2                !
 ! A66   A(31,28,32)           121.3439         estimate D2E/DX2                !
 ! A67   A(31,28,55)           121.5996         estimate D2E/DX2                !
 ! A68   A(32,28,55)           117.0565         estimate D2E/DX2                !
 ! A69   A(30,29,31)           119.092          estimate D2E/DX2                !
 ! A70   A(30,29,33)           121.1528         estimate D2E/DX2                !
 ! A71   A(31,29,33)           119.7551         estimate D2E/DX2                !
 ! A72   A(27,30,29)           119.565          estimate D2E/DX2                !
 ! A73   A(27,30,34)           118.3956         estimate D2E/DX2                !
 ! A74   A(29,30,34)           122.0394         estimate D2E/DX2                !
 ! A75   A(28,31,29)           121.3464         estimate D2E/DX2                !
 ! A76   A(28,31,56)           121.5906         estimate D2E/DX2                !
 ! A77   A(29,31,56)           117.0631         estimate D2E/DX2                !
 ! A78   A(18,32,27)           121.1524         estimate D2E/DX2                !
 ! A79   A(18,32,28)           119.7476         estimate D2E/DX2                !
 ! A80   A(27,32,28)           119.1            estimate D2E/DX2                !
 ! A81   A(29,33,44)           116.8088         estimate D2E/DX2                !
 ! A82   A(30,34,37)           116.8064         estimate D2E/DX2                !
 ! A83   A(44,35,46)           121.342          estimate D2E/DX2                !
 ! A84   A(44,35,57)           117.0462         estimate D2E/DX2                !
 ! A85   A(46,35,57)           121.6119         estimate D2E/DX2                !
 ! A86   A(45,36,46)           119.1082         estimate D2E/DX2                !
 ! A87   A(45,36,48)           121.1614         estimate D2E/DX2                !
 ! A88   A(46,36,48)           119.7304         estimate D2E/DX2                !
 ! A89   A(34,37,44)           122.0416         estimate D2E/DX2                !
 ! A90   A(34,37,45)           118.416          estimate D2E/DX2                !
 ! A91   A(44,37,45)           119.5424         estimate D2E/DX2                !
 ! A92   A(25,38,41)           119.7505         estimate D2E/DX2                !
 ! A93   A(25,38,43)           121.1585         estimate D2E/DX2                !
 ! A94   A(41,38,43)           119.0911         estimate D2E/DX2                !
 ! A95   A(42,39,43)           119.5553         estimate D2E/DX2                !
 ! A96   A(42,39,47)           122.0529         estimate D2E/DX2                !
 ! A97   A(43,39,47)           118.3918         estimate D2E/DX2                !
 ! A98   A(41,40,42)           121.3459         estimate D2E/DX2                !
 ! A99   A(41,40,59)           121.5787         estimate D2E/DX2                !
 ! A100  A(42,40,59)           117.0754         estimate D2E/DX2                !
 ! A101  A(38,41,40)           121.348          estimate D2E/DX2                !
 ! A102  A(38,41,60)           117.0794         estimate D2E/DX2                !
 ! A103  A(40,41,60)           121.5726         estimate D2E/DX2                !
 ! A104  A(39,42,40)           119.0978         estimate D2E/DX2                !
 ! A105  A(39,42,48)           121.1457         estimate D2E/DX2                !
 ! A106  A(40,42,48)           119.7565         estimate D2E/DX2                !
 ! A107  A(26,43,38)           122.0413         estimate D2E/DX2                !
 ! A108  A(26,43,39)           118.3968         estimate D2E/DX2                !
 ! A109  A(38,43,39)           119.562          estimate D2E/DX2                !
 ! A110  A(33,44,35)           119.7329         estimate D2E/DX2                !
 ! A111  A(33,44,37)           121.151          estimate D2E/DX2                !
 ! A112  A(35,44,37)           119.116          estimate D2E/DX2                !
 ! A113  A(36,45,37)           119.5573         estimate D2E/DX2                !
 ! A114  A(36,45,47)           122.0335         estimate D2E/DX2                !
 ! A115  A(37,45,47)           118.4092         estimate D2E/DX2                !
 ! A116  A(35,46,36)           121.3341         estimate D2E/DX2                !
 ! A117  A(35,46,58)           121.6073         estimate D2E/DX2                !
 ! A118  A(36,46,58)           117.0587         estimate D2E/DX2                !
 ! A119  A(39,47,45)           116.8018         estimate D2E/DX2                !
 ! A120  A(36,48,42)           116.8046         estimate D2E/DX2                !
 ! D1    D(12,1,10,3)           -0.0014         estimate D2E/DX2                !
 ! D2    D(12,1,10,54)         179.9988         estimate D2E/DX2                !
 ! D3    D(18,1,10,3)          179.9984         estimate D2E/DX2                !
 ! D4    D(18,1,10,54)          -0.0015         estimate D2E/DX2                !
 ! D5    D(10,1,12,2)            0.0019         estimate D2E/DX2                !
 ! D6    D(10,1,12,16)        -179.9999         estimate D2E/DX2                !
 ! D7    D(18,1,12,2)         -179.9978         estimate D2E/DX2                !
 ! D8    D(18,1,12,16)           0.0004         estimate D2E/DX2                !
 ! D9    D(10,1,18,32)        -179.9982         estimate D2E/DX2                !
 ! D10   D(12,1,18,32)           0.0015         estimate D2E/DX2                !
 ! D11   D(12,2,11,3)           -0.0016         estimate D2E/DX2                !
 ! D12   D(12,2,11,13)         179.9971         estimate D2E/DX2                !
 ! D13   D(14,2,11,3)         -179.9987         estimate D2E/DX2                !
 ! D14   D(14,2,11,13)           0.0            estimate D2E/DX2                !
 ! D15   D(11,2,12,1)           -0.0004         estimate D2E/DX2                !
 ! D16   D(11,2,12,16)        -179.9987         estimate D2E/DX2                !
 ! D17   D(14,2,12,1)          179.9968         estimate D2E/DX2                !
 ! D18   D(14,2,12,16)          -0.0014         estimate D2E/DX2                !
 ! D19   D(11,2,14,8)           -0.0008         estimate D2E/DX2                !
 ! D20   D(12,2,14,8)         -179.998          estimate D2E/DX2                !
 ! D21   D(11,3,10,1)           -0.0007         estimate D2E/DX2                !
 ! D22   D(11,3,10,54)         179.9991         estimate D2E/DX2                !
 ! D23   D(53,3,10,1)          179.9999         estimate D2E/DX2                !
 ! D24   D(53,3,10,54)          -0.0002         estimate D2E/DX2                !
 ! D25   D(10,3,11,2)            0.0022         estimate D2E/DX2                !
 ! D26   D(10,3,11,13)        -179.9965         estimate D2E/DX2                !
 ! D27   D(53,3,11,2)         -179.9984         estimate D2E/DX2                !
 ! D28   D(53,3,11,13)           0.0029         estimate D2E/DX2                !
 ! D29   D(9,4,7,6)              0.0021         estimate D2E/DX2                !
 ! D30   D(9,4,7,17)          -179.999          estimate D2E/DX2                !
 ! D31   D(51,4,7,6)          -179.9974         estimate D2E/DX2                !
 ! D32   D(51,4,7,17)            0.0015         estimate D2E/DX2                !
 ! D33   D(7,4,9,5)             -0.0005         estimate D2E/DX2                !
 ! D34   D(7,4,9,52)           179.9978         estimate D2E/DX2                !
 ! D35   D(51,4,9,5)           179.999          estimate D2E/DX2                !
 ! D36   D(51,4,9,52)           -0.0027         estimate D2E/DX2                !
 ! D37   D(9,5,8,6)              0.0031         estimate D2E/DX2                !
 ! D38   D(9,5,8,14)          -179.9998         estimate D2E/DX2                !
 ! D39   D(13,5,8,6)          -179.9998         estimate D2E/DX2                !
 ! D40   D(13,5,8,14)           -0.0026         estimate D2E/DX2                !
 ! D41   D(8,5,9,4)             -0.0022         estimate D2E/DX2                !
 ! D42   D(8,5,9,52)           179.9995         estimate D2E/DX2                !
 ! D43   D(13,5,9,4)          -179.9994         estimate D2E/DX2                !
 ! D44   D(13,5,9,52)            0.0023         estimate D2E/DX2                !
 ! D45   D(8,5,13,11)            0.0016         estimate D2E/DX2                !
 ! D46   D(9,5,13,11)          179.9988         estimate D2E/DX2                !
 ! D47   D(8,6,7,4)             -0.0011         estimate D2E/DX2                !
 ! D48   D(8,6,7,17)          -180.0            estimate D2E/DX2                !
 ! D49   D(15,6,7,4)          -179.9979         estimate D2E/DX2                !
 ! D50   D(15,6,7,17)            0.0033         estimate D2E/DX2                !
 ! D51   D(7,6,8,5)             -0.0015         estimate D2E/DX2                !
 ! D52   D(7,6,8,14)          -179.9987         estimate D2E/DX2                !
 ! D53   D(15,6,8,5)           179.9954         estimate D2E/DX2                !
 ! D54   D(15,6,8,14)           -0.0018         estimate D2E/DX2                !
 ! D55   D(7,6,15,22)           -0.0004         estimate D2E/DX2                !
 ! D56   D(8,6,15,22)         -179.9972         estimate D2E/DX2                !
 ! D57   D(4,7,17,21)          179.998          estimate D2E/DX2                !
 ! D58   D(6,7,17,21)           -0.0031         estimate D2E/DX2                !
 ! D59   D(5,8,14,2)             0.0021         estimate D2E/DX2                !
 ! D60   D(6,8,14,2)           179.9993         estimate D2E/DX2                !
 ! D61   D(2,11,13,5)           -0.0004         estimate D2E/DX2                !
 ! D62   D(3,11,13,5)          179.9983         estimate D2E/DX2                !
 ! D63   D(1,12,16,27)          -0.0026         estimate D2E/DX2                !
 ! D64   D(2,12,16,27)         179.9956         estimate D2E/DX2                !
 ! D65   D(6,15,22,19)         179.9944         estimate D2E/DX2                !
 ! D66   D(6,15,22,21)          -0.0022         estimate D2E/DX2                !
 ! D67   D(12,16,27,30)       -179.9935         estimate D2E/DX2                !
 ! D68   D(12,16,27,32)          0.003          estimate D2E/DX2                !
 ! D69   D(7,17,21,22)           0.0006         estimate D2E/DX2                !
 ! D70   D(7,17,21,23)        -179.9977         estimate D2E/DX2                !
 ! D71   D(1,18,32,27)          -0.0011         estimate D2E/DX2                !
 ! D72   D(1,18,32,28)         179.9984         estimate D2E/DX2                !
 ! D73   D(24,19,22,15)       -179.9947         estimate D2E/DX2                !
 ! D74   D(24,19,22,21)          0.002          estimate D2E/DX2                !
 ! D75   D(26,19,22,15)          0.0021         estimate D2E/DX2                !
 ! D76   D(26,19,22,21)        179.9987         estimate D2E/DX2                !
 ! D77   D(22,19,24,20)         -0.0063         estimate D2E/DX2                !
 ! D78   D(22,19,24,25)        179.9931         estimate D2E/DX2                !
 ! D79   D(26,19,24,20)        179.9971         estimate D2E/DX2                !
 ! D80   D(26,19,24,25)         -0.0035         estimate D2E/DX2                !
 ! D81   D(22,19,26,43)       -179.9931         estimate D2E/DX2                !
 ! D82   D(24,19,26,43)          0.0036         estimate D2E/DX2                !
 ! D83   D(24,20,23,21)          0.0014         estimate D2E/DX2                !
 ! D84   D(24,20,23,49)       -179.9981         estimate D2E/DX2                !
 ! D85   D(50,20,23,21)       -179.9982         estimate D2E/DX2                !
 ! D86   D(50,20,23,49)          0.0023         estimate D2E/DX2                !
 ! D87   D(23,20,24,19)          0.0047         estimate D2E/DX2                !
 ! D88   D(23,20,24,25)       -179.9947         estimate D2E/DX2                !
 ! D89   D(50,20,24,19)       -179.9957         estimate D2E/DX2                !
 ! D90   D(50,20,24,25)          0.0049         estimate D2E/DX2                !
 ! D91   D(17,21,22,15)          0.0022         estimate D2E/DX2                !
 ! D92   D(17,21,22,19)       -179.9943         estimate D2E/DX2                !
 ! D93   D(23,21,22,15)       -179.9995         estimate D2E/DX2                !
 ! D94   D(23,21,22,19)          0.004          estimate D2E/DX2                !
 ! D95   D(17,21,23,20)        179.9925         estimate D2E/DX2                !
 ! D96   D(17,21,23,49)         -0.0079         estimate D2E/DX2                !
 ! D97   D(22,21,23,20)         -0.0058         estimate D2E/DX2                !
 ! D98   D(22,21,23,49)        179.9938         estimate D2E/DX2                !
 ! D99   D(19,24,25,38)          0.0001         estimate D2E/DX2                !
 ! D100  D(20,24,25,38)        179.9995         estimate D2E/DX2                !
 ! D101  D(24,25,38,41)       -179.9964         estimate D2E/DX2                !
 ! D102  D(24,25,38,43)          0.0028         estimate D2E/DX2                !
 ! D103  D(19,26,43,38)         -0.0007         estimate D2E/DX2                !
 ! D104  D(19,26,43,39)        179.9964         estimate D2E/DX2                !
 ! D105  D(16,27,30,29)        179.9986         estimate D2E/DX2                !
 ! D106  D(16,27,30,34)          0.0019         estimate D2E/DX2                !
 ! D107  D(32,27,30,29)          0.002          estimate D2E/DX2                !
 ! D108  D(32,27,30,34)       -179.9948         estimate D2E/DX2                !
 ! D109  D(16,27,32,18)         -0.0013         estimate D2E/DX2                !
 ! D110  D(16,27,32,28)        179.9993         estimate D2E/DX2                !
 ! D111  D(30,27,32,18)        179.9953         estimate D2E/DX2                !
 ! D112  D(30,27,32,28)         -0.0042         estimate D2E/DX2                !
 ! D113  D(32,28,31,29)          0.0015         estimate D2E/DX2                !
 ! D114  D(32,28,31,56)       -179.9985         estimate D2E/DX2                !
 ! D115  D(55,28,31,29)       -179.9971         estimate D2E/DX2                !
 ! D116  D(55,28,31,56)          0.003          estimate D2E/DX2                !
 ! D117  D(31,28,32,18)       -179.997          estimate D2E/DX2                !
 ! D118  D(31,28,32,27)          0.0025         estimate D2E/DX2                !
 ! D119  D(55,28,32,18)          0.0017         estimate D2E/DX2                !
 ! D120  D(55,28,32,27)       -179.9989         estimate D2E/DX2                !
 ! D121  D(31,29,30,27)          0.0019         estimate D2E/DX2                !
 ! D122  D(31,29,30,34)        179.9986         estimate D2E/DX2                !
 ! D123  D(33,29,30,27)       -179.9961         estimate D2E/DX2                !
 ! D124  D(33,29,30,34)          0.0006         estimate D2E/DX2                !
 ! D125  D(30,29,31,28)         -0.0037         estimate D2E/DX2                !
 ! D126  D(30,29,31,56)        179.9962         estimate D2E/DX2                !
 ! D127  D(33,29,31,28)        179.9944         estimate D2E/DX2                !
 ! D128  D(33,29,31,56)         -0.0057         estimate D2E/DX2                !
 ! D129  D(30,29,33,44)          0.0013         estimate D2E/DX2                !
 ! D130  D(31,29,33,44)       -179.9967         estimate D2E/DX2                !
 ! D131  D(27,30,34,37)        179.9948         estimate D2E/DX2                !
 ! D132  D(29,30,34,37)         -0.0019         estimate D2E/DX2                !
 ! D133  D(29,33,44,35)        179.9971         estimate D2E/DX2                !
 ! D134  D(29,33,44,37)         -0.0017         estimate D2E/DX2                !
 ! D135  D(30,34,37,44)          0.0014         estimate D2E/DX2                !
 ! D136  D(30,34,37,45)       -179.996          estimate D2E/DX2                !
 ! D137  D(46,35,44,33)       -179.9958         estimate D2E/DX2                !
 ! D138  D(46,35,44,37)          0.003          estimate D2E/DX2                !
 ! D139  D(57,35,44,33)          0.0037         estimate D2E/DX2                !
 ! D140  D(57,35,44,37)       -179.9975         estimate D2E/DX2                !
 ! D141  D(44,35,46,36)         -0.0013         estimate D2E/DX2                !
 ! D142  D(44,35,46,58)        179.9974         estimate D2E/DX2                !
 ! D143  D(57,35,46,36)        179.9993         estimate D2E/DX2                !
 ! D144  D(57,35,46,58)         -0.0021         estimate D2E/DX2                !
 ! D145  D(46,36,45,37)          0.0044         estimate D2E/DX2                !
 ! D146  D(46,36,45,47)       -179.998          estimate D2E/DX2                !
 ! D147  D(48,36,45,37)       -179.9962         estimate D2E/DX2                !
 ! D148  D(48,36,45,47)          0.0014         estimate D2E/DX2                !
 ! D149  D(45,36,46,35)         -0.0024         estimate D2E/DX2                !
 ! D150  D(45,36,46,58)        179.9988         estimate D2E/DX2                !
 ! D151  D(48,36,46,35)        179.9981         estimate D2E/DX2                !
 ! D152  D(48,36,46,58)         -0.0006         estimate D2E/DX2                !
 ! D153  D(45,36,48,42)          0.0            estimate D2E/DX2                !
 ! D154  D(46,36,48,42)        179.9994         estimate D2E/DX2                !
 ! D155  D(34,37,44,33)          0.0004         estimate D2E/DX2                !
 ! D156  D(34,37,44,35)       -179.9984         estimate D2E/DX2                !
 ! D157  D(45,37,44,33)        179.9978         estimate D2E/DX2                !
 ! D158  D(45,37,44,35)         -0.001          estimate D2E/DX2                !
 ! D159  D(34,37,45,36)        179.9948         estimate D2E/DX2                !
 ! D160  D(34,37,45,47)         -0.0028         estimate D2E/DX2                !
 ! D161  D(44,37,45,36)         -0.0027         estimate D2E/DX2                !
 ! D162  D(44,37,45,47)        179.9997         estimate D2E/DX2                !
 ! D163  D(25,38,41,40)        179.9994         estimate D2E/DX2                !
 ! D164  D(25,38,41,60)          0.0005         estimate D2E/DX2                !
 ! D165  D(43,38,41,40)          0.0001         estimate D2E/DX2                !
 ! D166  D(43,38,41,60)       -179.9987         estimate D2E/DX2                !
 ! D167  D(25,38,43,26)         -0.0026         estimate D2E/DX2                !
 ! D168  D(25,38,43,39)       -179.9997         estimate D2E/DX2                !
 ! D169  D(41,38,43,26)        179.9966         estimate D2E/DX2                !
 ! D170  D(41,38,43,39)         -0.0005         estimate D2E/DX2                !
 ! D171  D(43,39,42,40)         -0.0007         estimate D2E/DX2                !
 ! D172  D(43,39,42,48)        179.9989         estimate D2E/DX2                !
 ! D173  D(47,39,42,40)       -179.9982         estimate D2E/DX2                !
 ! D174  D(47,39,42,48)          0.0014         estimate D2E/DX2                !
 ! D175  D(42,39,43,26)       -179.9964         estimate D2E/DX2                !
 ! D176  D(42,39,43,38)          0.0008         estimate D2E/DX2                !
 ! D177  D(47,39,43,26)          0.0012         estimate D2E/DX2                !
 ! D178  D(47,39,43,38)        179.9984         estimate D2E/DX2                !
 ! D179  D(42,39,47,45)          0.0            estimate D2E/DX2                !
 ! D180  D(43,39,47,45)       -179.9976         estimate D2E/DX2                !
 ! D181  D(42,40,41,38)          0.0            estimate D2E/DX2                !
 ! D182  D(42,40,41,60)        179.9988         estimate D2E/DX2                !
 ! D183  D(59,40,41,38)       -179.9991         estimate D2E/DX2                !
 ! D184  D(59,40,41,60)         -0.0003         estimate D2E/DX2                !
 ! D185  D(41,40,42,39)          0.0003         estimate D2E/DX2                !
 ! D186  D(41,40,42,48)       -179.9993         estimate D2E/DX2                !
 ! D187  D(59,40,42,39)        179.9994         estimate D2E/DX2                !
 ! D188  D(59,40,42,48)         -0.0002         estimate D2E/DX2                !
 ! D189  D(39,42,48,36)         -0.0013         estimate D2E/DX2                !
 ! D190  D(40,42,48,36)        179.9983         estimate D2E/DX2                !
 ! D191  D(36,45,47,39)         -0.0013         estimate D2E/DX2                !
 ! D192  D(37,45,47,39)        179.9963         estimate D2E/DX2                !
 --------------------------------------------------------------------------------
 Trust Radius=3.00D-01 FncErr=1.00D-07 GrdErr=1.00D-06
 Number of steps in this run=    360 maximum allowed number of steps=    360.
 GradGradGradGradGradGradGradGradGradGradGradGradGradGradGradGradGradGrad

 Stoichiometry    C36H12N12
 Framework group  C1[X(C36H12N12)]
 Deg. of freedom   174
 Full point group                 C1      NOp   1
 Largest Abelian subgroup         C1      NOp   1
 Largest concise Abelian subgroup C1      NOp   1
                         Standard orientation:                         
 ---------------------------------------------------------------------
 Center     Atomic      Atomic             Coordinates (Angstroms)
 Number     Number       Type             X           Y           Z
 ---------------------------------------------------------------------
      1          6           0        4.914727   -0.719166    0.000060
      2          6           0        2.881596   -2.151402   -0.000046
      3          6           0        5.142578   -3.150558    0.000250
      4          6           0       -0.157115   -6.028546    0.000177
      5          6           0        1.834291   -4.615443    0.000178
      6          6           0       -0.422452   -3.570621   -0.000105
      7          6           0       -1.013622   -4.861989    0.000015
      8          6           0        1.029786   -3.444988   -0.000038
      9          6           0        1.190997   -5.911920    0.000259
     10          6           0        5.715626   -1.924660    0.000218
     11          6           0        3.704083   -3.309157    0.000143
     12          6           0        3.498938   -0.830779   -0.000093
     13          7           0        3.170932   -4.537417    0.000250
     14          7           0        1.557824   -2.228599   -0.000126
     15          7           0       -1.151674   -2.463104   -0.000214
     16          7           0        2.709269    0.234487   -0.000243
     17          7           0       -2.343795   -5.014795   -0.000042
     18          7           0        5.515319    0.477553    0.000066
     19          6           0       -3.304093   -1.419646   -0.000207
     20          6           0       -5.299748   -2.878452   -0.000125
     21          6           0       -3.080124   -3.896493   -0.000151
     22          6           0       -2.469028   -2.614461   -0.000215
     23          6           0       -4.524475   -3.987558   -0.000167
     24          6           0       -4.717936   -1.553226   -0.000093
     25          7           0       -5.515317   -0.477551    0.000055
     26          7           0       -2.709267   -0.234493   -0.000242
     27          6           0        3.304082    1.419640   -0.000190
     28          6           0        5.299735    2.878447   -0.000012
     29          6           0        3.080112    3.896507   -0.000121
     30          6           0        2.469016    2.614458   -0.000206
     31          6           0        4.524475    3.987556   -0.000062
     32          6           0        4.717925    1.553219   -0.000047
     33          7           0        2.343798    5.014794   -0.000055
     34          7           0        1.151651    2.463097   -0.000235
     35          6           0        0.157118    6.028547    0.000087
     36          6           0       -1.834285    4.615444    0.000130
     37          6           0        0.422451    3.570641   -0.000142
     38          6           0       -4.914718    0.719161    0.000087
     39          6           0       -2.881583    2.151403   -0.000043
     40          6           0       -5.142572    3.150553    0.000375
     41          6           0       -5.715608    1.924658    0.000323
     42          6           0       -3.704073    3.309174    0.000197
     43          6           0       -3.498929    0.830774   -0.000090
     44          6           0        1.013612    4.861985   -0.000047
     45          6           0       -1.029798    3.444998   -0.000081
     46          6           0       -1.190996    5.911923    0.000184
     47          7           0       -1.557807    2.228598   -0.000179
     48          7           0       -3.170933    4.537422    0.000268
     49          1           0       -4.956147   -4.982516   -0.000222
     50          1           0       -6.382452   -2.941931   -0.000107
     51          1           0       -0.643887   -6.997754    0.000221
     52          1           0        1.836887   -6.783149    0.000416
     53          1           0        5.739097   -4.056363    0.000367
     54          1           0        6.793168   -1.801541    0.000312
     55          1           0        6.382443    2.941896    0.000079
     56          1           0        4.956182    4.982498   -0.000061
     57          1           0        0.643892    6.997753    0.000115
     58          1           0       -1.836885    6.783153    0.000327
     59          1           0       -5.739107    4.056347    0.000566
     60          1           0       -6.793151    1.801521    0.000475
 ---------------------------------------------------------------------
 Rotational constants (GHZ):      0.0699766      0.0699687      0.0349863
 Standard basis: 6-31G(d,p) (6D, 7F)
 There are   780 symmetry adapted cartesian basis functions of A   symmetry.
 There are   780 symmetry adapted basis functions of A   symmetry.
   780 basis functions,  1428 primitive gaussians,   780 cartesian basis functions
   156 alpha electrons      156 beta electrons
       nuclear repulsion energy      5351.9494026848 Hartrees.
 NAtoms=   60 NActive=   60 NUniq=   60 SFac= 1.00D+00 NAtFMM=   60 NAOKFM=T Big=T
 Integral buffers will be    131072 words long.
 Raffenetti 2 integral format.
 Two-electron integral symmetry is turned on.
 One-electron integrals computed using PRISM.
 NBasis=   780 RedAO= T EigKep=  2.11D-04  NBF=   780
 NBsUse=   780 1.00D-06 EigRej= -1.00D+00 NBFU=   780
 ExpMin= 1.61D-01 ExpMax= 4.17D+03 ExpMxC= 6.27D+02 IAcc=1 IRadAn=         1 AccDes= 0.00D+00
 Harris functional with IExCor=  402 and IRadAn=       1 diagonalized for initial guess.
 HarFok:  IExCor=  402 AccDes= 0.00D+00 IRadAn=         1 IDoV= 1 UseB2=F ITyADJ=14
 ICtDFT=  3500011 ScaDFX=  1.000000  1.000000  1.000000  1.000000
 FoFCou: FMM=F IPFlag=           0 FMFlag=      100000 FMFlg1=        2001
         NFxFlg=           0 DoJE=T BraDBF=F KetDBF=T FulRan=T
         wScrn=  0.000000 ICntrl=     500 IOpCl=  0 I1Cent=   200000004 NGrid=           0
         NMat0=    1 NMatS0=      1 NMatT0=    0 NMatD0=    1 NMtDS0=    0 NMtDT0=    0
 Petite list used in FoFCou.
 Requested convergence on RMS density matrix=1.00D-08 within  64 cycles.
 Requested convergence on MAX density matrix=1.00D-06.
 Requested convergence on             energy=1.00D-06.
 No special actions if energy rises.
 Integral accuracy reduced to 1.0D-05 until final iterations.
 Initial convergence to 1.0D-05 achieved.  Increase integral accuracy.
 DSYEVD-2 returned Info=      305956 IAlg= 4 N=   780 NDim=   780 NE2=     2062505 trying  DSYEV.
 SCF Done:  E(RB3LYP) =  -2036.17130678     A.U. after   14 cycles
            NFock= 14  Conv=0.63D-08     -V/T= 2.0089
 QCSCF skips out because SCF is already converged.

 **********************************************************************

            Population analysis using the SCF density.

 **********************************************************************

 Orbital symmetries:
       Occupied  (A) (A) (A) (A) (A) (A) (A) (A) (A) (A) (A) (A)
                 (A) (A) (A) (A) (A) (A) (A) (A) (A) (A) (A) (A)
                 (A) (A) (A) (A) (A) (A) (A) (A) (A) (A) (A) (A)
                 (A) (A) (A) (A) (A) (A) (A) (A) (A) (A) (A) (A)
                 (A) (A) (A) (A) (A) (A) (A) (A) (A) (A) (A) (A)
                 (A) (A) (A) (A) (A) (A) (A) (A) (A) (A) (A) (A)
                 (A) (A) (A) (A) (A) (A) (A) (A) (A) (A) (A) (A)
                 (A) (A) (A) (A) (A) (A) (A) (A) (A) (A) (A) (A)
                 (A) (A) (A) (A) (A) (A) (A) (A) (A) (A) (A) (A)
                 (A) (A) (A) (A) (A) (A) (A) (A) (A) (A) (A) (A)
                 (A) (A) (A) (A) (A) (A) (A) (A) (A) (A) (A) (A)
                 (A) (A) (A) (A) (A) (A) (A) (A) (A) (A) (A) (A)
                 (A) (A) (A) (A) (A) (A) (A) (A) (A) (A) (A) (A)
       Virtual   (A) (A) (A) (A) (A) (A) (A) (A) (A) (A) (A) (A)
                 (A) (A) (A) (A) (A) (A) (A) (A) (A) (A) (A) (A)
                 (A) (A) (A) (A) (A) (A) (A) (A) (A) (A) (A) (A)
                 (A) (A) (A) (A) (A) (A) (A) (A) (A) (A) (A) (A)
                 (A) (A) (A) (A) (A) (A) (A) (A) (A) (A) (A) (A)
                 (A) (A) (A) (A) (A) (A) (A) (A) (A) (A) (A) (A)
                 (A) (A) (A) (A) (A) (A) (A) (A) (A) (A) (A) (A)
                 (A) (A) (A) (A) (A) (A) (A) (A) (A) (A) (A) (A)
                 (A) (A) (A) (A) (A) (A) (A) (A) (A) (A) (A) (A)
                 (A) (A) (A) (A) (A) (A) (A) (A) (A) (A) (A) (A)
                 (A) (A) (A) (A) (A) (A) (A) (A) (A) (A) (A) (A)
                 (A) (A) (A) (A) (A) (A) (A) (A) (A) (A) (A) (A)
                 (A) (A) (A) (A) (A) (A) (A) (A) (A) (A) (A) (A)
                 (A) (A) (A) (A) (A) (A) (A) (A) (A) (A) (A) (A)
                 (A) (A) (A) (A) (A) (A) (A) (A) (A) (A) (A) (A)
                 (A) (A) (A) (A) (A) (A) (A) (A) (A) (A) (A) (A)
                 (A) (A) (A) (A) (A) (A) (A) (A) (A) (A) (A) (A)
                 (A) (A) (A) (A) (A) (A) (A) (A) (A) (A) (A) (A)
                 (A) (A) (A) (A) (A) (A) (A) (A) (A) (A) (A) (A)
                 (A) (A) (A) (A) (A) (A) (A) (A) (A) (A) (A) (A)
                 (A) (A) (A) (A) (A) (A) (A) (A) (A) (A) (A) (A)
                 (A) (A) (A) (A) (A) (A) (A) (A) (A) (A) (A) (A)
                 (A) (A) (A) (A) (A) (A) (A) (A) (A) (A) (A) (A)
                 (A) (A) (A) (A) (A) (A) (A) (A) (A) (A) (A) (A)
                 (A) (A) (A) (A) (A) (A) (A) (A) (A) (A) (A) (A)
                 (A) (A) (A) (A) (A) (A) (A) (A) (A) (A) (A) (A)
                 (A) (A) (A) (A) (A) (A) (A) (A) (A) (A) (A) (A)
                 (A) (A) (A) (A) (A) (A) (A) (A) (A) (A) (A) (A)
                 (A) (A) (A) (A) (A) (A) (A) (A) (A) (A) (A) (A)
                 (A) (A) (A) (A) (A) (A) (A) (A) (A) (A) (A) (A)
                 (A) (A) (A) (A) (A) (A) (A) (A) (A) (A) (A) (A)
                 (A) (A) (A) (A) (A) (A) (A) (A) (A) (A) (A) (A)
                 (A) (A) (A) (A) (A) (A) (A) (A) (A) (A) (A) (A)
                 (A) (A) (A) (A) (A) (A) (A) (A) (A) (A) (A) (A)
                 (A) (A) (A) (A) (A) (A) (A) (A) (A) (A) (A) (A)
                 (A) (A) (A) (A) (A) (A) (A) (A) (A) (A) (A) (A)
                 (A) (A) (A) (A) (A) (A) (A) (A) (A) (A) (A) (A)
                 (A) (A) (A) (A) (A) (A) (A) (A) (A) (A) (A) (A)
                 (A) (A) (A) (A) (A) (A) (A) (A) (A) (A) (A) (A)
                 (A) (A) (A) (A) (A) (A) (A) (A) (A) (A) (A) (A)
                 (A) (A) (A) (A) (A) (A) (A) (A) (A) (A) (A) (A)
                 (A) (A) (A) (A) (A) (A) (A) (A) (A) (A) (A) (A)
                 (A) (A) (A) (A) (A) (A) (A) (A) (A) (A) (A) (A)
                 (A) (A) (A) (A) (A) (A) (A) (A) (A) (A) (A) (A)
                 (A) (A) (A) (A) (A) (A) (A) (A) (A) (A) (A) (A)
                 (A) (A) (A) (A) (A) (A) (A) (A) (A) (A) (A) (A)
                 (A) (A) (A) (A) (A) (A) (A) (A) (A) (A) (A) (A)
                 (A) (A) (A) (A) (A) (A) (A) (A) (A) (A) (A) (A)
                 (A) (A) (A) (A) (A) (A) (A) (A) (A) (A) (A) (A)
                 (A) (A) (A) (A) (A) (A) (A) (A) (A) (A) (A) (A)
                 (A) (A) (A) (A) (A) (A) (A) (A) (A) (A) (A) (A)
                 (A) (A) (A) (A) (A) (A) (A) (A) (A) (A) (A) (A)
 The electronic state is 1-A.
 Alpha  occ. eigenvalues --  -14.35457 -14.35457 -14.35455 -14.35455 -14.35455
 Alpha  occ. eigenvalues --  -14.35455 -14.34811 -14.34810 -14.34810 -14.34810
 Alpha  occ. eigenvalues --  -14.34810 -14.34810 -10.24847 -10.24847 -10.24846
 Alpha  occ. eigenvalues --  -10.24846 -10.24846 -10.24846 -10.24845 -10.24845
 Alpha  occ. eigenvalues --  -10.24845 -10.24845 -10.24845 -10.24845 -10.24351
 Alpha  occ. eigenvalues --  -10.24350 -10.24350 -10.24350 -10.24349 -10.24349
 Alpha  occ. eigenvalues --  -10.24316 -10.24316 -10.24315 -10.24315 -10.24315
 Alpha  occ. eigenvalues --  -10.24315 -10.21441 -10.21441 -10.21441 -10.21440
 Alpha  occ. eigenvalues --  -10.21439 -10.21439 -10.21366 -10.21365 -10.21365
 Alpha  occ. eigenvalues --  -10.21365 -10.21364 -10.21364  -1.00974  -1.00402
 Alpha  occ. eigenvalues --   -1.00402  -0.99118  -0.99118  -0.98383  -0.93484
 Alpha  occ. eigenvalues --   -0.93063  -0.93063  -0.91882  -0.91881  -0.90813
 Alpha  occ. eigenvalues --   -0.88038  -0.86532  -0.86532  -0.83777  -0.83777
 Alpha  occ. eigenvalues --   -0.81633  -0.78662  -0.77791  -0.76825  -0.76824
 Alpha  occ. eigenvalues --   -0.75696  -0.75695  -0.71115  -0.71114  -0.69931
 Alpha  occ. eigenvalues --   -0.69930  -0.69839  -0.66420  -0.65867  -0.64434
 Alpha  occ. eigenvalues --   -0.64432  -0.64274  -0.64274  -0.63076  -0.59930
 Alpha  occ. eigenvalues --   -0.59738  -0.59738  -0.58278  -0.56335  -0.56334
 Alpha  occ. eigenvalues --   -0.55928  -0.55396  -0.55395  -0.52407  -0.52367
 Alpha  occ. eigenvalues --   -0.52365  -0.51428  -0.51096  -0.51095  -0.49358
 Alpha  occ. eigenvalues --   -0.48197  -0.48195  -0.47909  -0.47908  -0.47159
 Alpha  occ. eigenvalues --   -0.46831  -0.46307  -0.46306  -0.45426  -0.45382
 Alpha  occ. eigenvalues --   -0.45378  -0.44036  -0.44036  -0.43928  -0.43926
 Alpha  occ. eigenvalues --   -0.43283  -0.41938  -0.41694  -0.40912  -0.40912
 Alpha  occ. eigenvalues --   -0.39580  -0.39578  -0.38407  -0.38234  -0.38162
 Alpha  occ. eigenvalues --   -0.38162  -0.37386  -0.37368  -0.36641  -0.36640
 Alpha  occ. eigenvalues --   -0.35868  -0.35868  -0.34259  -0.34259  -0.32522
 Alpha  occ. eigenvalues --   -0.31990  -0.31721  -0.31718  -0.31530  -0.31530
 Alpha  occ. eigenvalues --   -0.30396  -0.30395  -0.29971  -0.27661  -0.27523
 Alpha  occ. eigenvalues --   -0.26686  -0.25903  -0.25334  -0.25332  -0.24882
 Alpha  occ. eigenvalues --   -0.24836  -0.24835  -0.24583  -0.24583  -0.23551
 Alpha  occ. eigenvalues --   -0.23550
 Alpha virt. eigenvalues --   -0.09873  -0.09871  -0.09734  -0.09733  -0.07490
 Alpha virt. eigenvalues --   -0.07159  -0.03896  -0.01958  -0.00722  -0.00721
 Alpha virt. eigenvalues --   -0.00381  -0.00380   0.03333   0.03333   0.03704
 Alpha virt. eigenvalues --    0.05991   0.05993   0.10398   0.10543   0.10748
 Alpha virt. eigenvalues --    0.10750   0.11171   0.11174   0.11376   0.12626
 Alpha virt. eigenvalues --    0.16868   0.16889   0.16890   0.17138   0.17138
 Alpha virt. eigenvalues --    0.17174   0.17175   0.17310   0.17676   0.19243
 Alpha virt. eigenvalues --    0.19246   0.21402   0.21403   0.22028   0.22033
 Alpha virt. eigenvalues --    0.22407   0.22445   0.22446   0.22563   0.22821
 Alpha virt. eigenvalues --    0.23086   0.23152   0.23156   0.24384   0.24386
 Alpha virt. eigenvalues --    0.26851   0.27083   0.27086   0.27997   0.29108
 Alpha virt. eigenvalues --    0.29661   0.29662   0.30430   0.30434   0.31144
 Alpha virt. eigenvalues --    0.32333   0.32358   0.32788   0.32790   0.33652
 Alpha virt. eigenvalues --    0.33657   0.36137   0.36275   0.37132   0.37133
 Alpha virt. eigenvalues --    0.38289   0.38291   0.38872   0.39065   0.39067
 Alpha virt. eigenvalues --    0.42408   0.42630   0.42635   0.43297   0.43298
 Alpha virt. eigenvalues --    0.43334   0.43337   0.43656   0.45797   0.47148
 Alpha virt. eigenvalues --    0.47151   0.47802   0.47870   0.48255   0.48275
 Alpha virt. eigenvalues --    0.48276   0.48312   0.48316   0.49204   0.49207
 Alpha virt. eigenvalues --    0.49306   0.49306   0.49574   0.49574   0.50802
 Alpha virt. eigenvalues --    0.51782   0.53203   0.53461   0.53527   0.53708
 Alpha virt. eigenvalues --    0.53711   0.53826   0.54323   0.54328   0.55409
 Alpha virt. eigenvalues --    0.55410   0.55983   0.56195   0.56196   0.56382
 Alpha virt. eigenvalues --    0.57504   0.57507   0.57707   0.58144   0.58145
 Alpha virt. eigenvalues --    0.58161   0.58582   0.58583   0.59817   0.59938
 Alpha virt. eigenvalues --    0.59938   0.60091   0.60091   0.60285   0.60780
 Alpha virt. eigenvalues --    0.60782   0.61420   0.61617   0.61728   0.61991
 Alpha virt. eigenvalues --    0.62130   0.62134   0.62350   0.62856   0.62860
 Alpha virt. eigenvalues --    0.62874   0.63010   0.64229   0.64233   0.64491
 Alpha virt. eigenvalues --    0.64492   0.64576   0.64578   0.65618   0.65620
 Alpha virt. eigenvalues --    0.66274   0.67346   0.67347   0.69031   0.69193
 Alpha virt. eigenvalues --    0.69195   0.70062   0.70064   0.72264   0.72982
 Alpha virt. eigenvalues --    0.72986   0.74492   0.75375   0.75876   0.76541
 Alpha virt. eigenvalues --    0.76546   0.76727   0.76845   0.77294   0.77302
 Alpha virt. eigenvalues --    0.78120   0.78122   0.78980   0.78981   0.80639
 Alpha virt. eigenvalues --    0.80640   0.81787   0.81790   0.81814   0.81817
 Alpha virt. eigenvalues --    0.82956   0.82960   0.83764   0.84112   0.84115
 Alpha virt. eigenvalues --    0.84854   0.84984   0.84985   0.85109   0.85120
 Alpha virt. eigenvalues --    0.85123   0.85579   0.85584   0.85782   0.85783
 Alpha virt. eigenvalues --    0.86683   0.87139   0.87830   0.87833   0.87967
 Alpha virt. eigenvalues --    0.87969   0.88397   0.89163   0.90552   0.90558
 Alpha virt. eigenvalues --    0.90903   0.91568   0.91923   0.93620   0.93624
 Alpha virt. eigenvalues --    0.94294   0.94297   0.94343   0.94439   0.97114
 Alpha virt. eigenvalues --    0.97117   0.97608   0.97910   0.97916   0.98430
 Alpha virt. eigenvalues --    0.98432   1.01180   1.01186   1.01583   1.01585
 Alpha virt. eigenvalues --    1.01977   1.02440   1.02595   1.03956   1.03960
 Alpha virt. eigenvalues --    1.04911   1.04920   1.05555   1.08617   1.11592
 Alpha virt. eigenvalues --    1.11595   1.12089   1.13513   1.13719   1.13723
 Alpha virt. eigenvalues --    1.14864   1.15160   1.15172   1.17577   1.18026
 Alpha virt. eigenvalues --    1.18104   1.19679   1.19680   1.19757   1.19758
 Alpha virt. eigenvalues --    1.19853   1.19858   1.20991   1.22736   1.22741
 Alpha virt. eigenvalues --    1.22789   1.22800   1.25216   1.25216   1.25716
 Alpha virt. eigenvalues --    1.25717   1.25867   1.26577   1.29127   1.29132
 Alpha virt. eigenvalues --    1.29901   1.30547   1.32094   1.32102   1.32320
 Alpha virt. eigenvalues --    1.33259   1.33795   1.33800   1.33902   1.33904
 Alpha virt. eigenvalues --    1.34886   1.35460   1.35462   1.35886   1.35886
 Alpha virt. eigenvalues --    1.36364   1.36367   1.37075   1.37079   1.37108
 Alpha virt. eigenvalues --    1.37159   1.37216   1.37375   1.37644   1.37645
 Alpha virt. eigenvalues --    1.37747   1.37853   1.37854   1.40720   1.42571
 Alpha virt. eigenvalues --    1.45121   1.45122   1.45636   1.46686   1.46689
 Alpha virt. eigenvalues --    1.46747   1.46758   1.47474   1.48216   1.48219
 Alpha virt. eigenvalues --    1.48744   1.49822   1.49826   1.50449   1.50567
 Alpha virt. eigenvalues --    1.50567   1.56759   1.61782   1.61784   1.63553
 Alpha virt. eigenvalues --    1.63554   1.64891   1.65016   1.66519   1.68000
 Alpha virt. eigenvalues --    1.68162   1.68171   1.69244   1.70648   1.70652
 Alpha virt. eigenvalues --    1.72970   1.72974   1.73023   1.73870   1.74163
 Alpha virt. eigenvalues --    1.74169   1.75453   1.75533   1.75535   1.75564
 Alpha virt. eigenvalues --    1.76096   1.76097   1.76358   1.76358   1.77530
 Alpha virt. eigenvalues --    1.77533   1.78950   1.79687   1.79867   1.80573
 Alpha virt. eigenvalues --    1.81124   1.81130   1.81636   1.81649   1.82047
 Alpha virt. eigenvalues --    1.82059   1.82072   1.82632   1.82636   1.82978
 Alpha virt. eigenvalues --    1.84044   1.84045   1.84067   1.84071   1.84602
 Alpha virt. eigenvalues --    1.85484   1.85485   1.87425   1.88300   1.88304
 Alpha virt. eigenvalues --    1.88827   1.89753   1.89926   1.89931   1.90119
 Alpha virt. eigenvalues --    1.90120   1.90127   1.90131   1.90467   1.91600
 Alpha virt. eigenvalues --    1.92826   1.92831   1.93307   1.93311   1.94479
 Alpha virt. eigenvalues --    1.94614   1.94721   1.94856   1.94862   1.95187
 Alpha virt. eigenvalues --    1.96446   1.96450   1.97668   1.97673   1.98507
 Alpha virt. eigenvalues --    1.98508   1.98572   1.99330   2.00734   2.00921
 Alpha virt. eigenvalues --    2.00928   2.10821   2.11252   2.11253   2.11327
 Alpha virt. eigenvalues --    2.11330   2.13995   2.13997   2.16364   2.16413
 Alpha virt. eigenvalues --    2.16721   2.16727   2.16945   2.16968   2.16974
 Alpha virt. eigenvalues --    2.17403   2.17680   2.17873   2.17876   2.18777
 Alpha virt. eigenvalues --    2.21034   2.21040   2.21170   2.21989   2.21990
 Alpha virt. eigenvalues --    2.22476   2.22481   2.23165   2.23552   2.24480
 Alpha virt. eigenvalues --    2.24484   2.26728   2.28399   2.28400   2.30356
 Alpha virt. eigenvalues --    2.30358   2.30924   2.31233   2.32329   2.32334
 Alpha virt. eigenvalues --    2.32427   2.32429   2.32485   2.32486   2.33511
 Alpha virt. eigenvalues --    2.33513   2.34326   2.34626   2.34971   2.35462
 Alpha virt. eigenvalues --    2.35466   2.36499   2.38991   2.39689   2.39755
 Alpha virt. eigenvalues --    2.39762   2.40306   2.40314   2.40661   2.41116
 Alpha virt. eigenvalues --    2.41128   2.44651   2.44652   2.44918   2.44925
 Alpha virt. eigenvalues --    2.45382   2.45393   2.45857   2.46325   2.47107
 Alpha virt. eigenvalues --    2.47167   2.47173   2.47514   2.52620   2.52622
 Alpha virt. eigenvalues --    2.52626   2.53852   2.56145   2.56150   2.56660
 Alpha virt. eigenvalues --    2.56669   2.56977   2.58545   2.58547   2.58596
 Alpha virt. eigenvalues --    2.58598   2.59666   2.59805   2.59817   2.61113
 Alpha virt. eigenvalues --    2.61347   2.61635   2.61638   2.62277   2.62280
 Alpha virt. eigenvalues --    2.62547   2.62550   2.63532   2.64444   2.64462
 Alpha virt. eigenvalues --    2.66170   2.66744   2.66794   2.66794   2.68432
 Alpha virt. eigenvalues --    2.69281   2.69288   2.70756   2.72538   2.72540
 Alpha virt. eigenvalues --    2.72672   2.72674   2.73194   2.73194   2.74235
 Alpha virt. eigenvalues --    2.75068   2.75092   2.79331   2.79336   2.79841
 Alpha virt. eigenvalues --    2.79845   2.80632   2.80639   2.82157   2.83832
 Alpha virt. eigenvalues --    2.83834   2.84821   2.84825   2.85119   2.85123
 Alpha virt. eigenvalues --    2.85604   2.85779   2.87771   2.87771   2.88876
 Alpha virt. eigenvalues --    2.90158   2.90169   2.90565   2.92757   2.97687
 Alpha virt. eigenvalues --    3.03514   3.03516   3.04194   3.04197   3.08055
 Alpha virt. eigenvalues --    3.10788   3.10800   3.11382   3.13592   3.13594
 Alpha virt. eigenvalues --    3.14961   3.15674   3.15676   3.16713   3.17109
 Alpha virt. eigenvalues --    3.17116   3.22337   3.24021   3.25363   3.26828
 Alpha virt. eigenvalues --    3.26836   3.27080   3.27087   3.27855   3.29409
 Alpha virt. eigenvalues --    3.29420   3.35856   3.38871   3.38882   3.45979
 Alpha virt. eigenvalues --    3.45980   3.48091   3.58297   3.58301   3.61620
 Alpha virt. eigenvalues --    3.70428   3.70443   3.71534   3.73632   3.73645
 Alpha virt. eigenvalues --    3.76510   3.96201   4.02979   4.02984   4.03207
 Alpha virt. eigenvalues --    4.05181   4.05183   4.05929   4.05930   4.06624
 Alpha virt. eigenvalues --    4.08934   4.08935   4.09811   4.14891   4.15856
 Alpha virt. eigenvalues --    4.15862   4.15883   4.15888   4.17060   4.18089
 Alpha virt. eigenvalues --    4.22377   4.22381   4.31798   4.31803   4.36120
 Alpha virt. eigenvalues --    4.42180   4.42183   4.43950   4.44565   4.44565
 Alpha virt. eigenvalues --    4.45676   4.47386   4.52649   4.52651   4.52855
 Alpha virt. eigenvalues --    4.52856   4.56996   4.67181   4.71913   4.71914
 Alpha virt. eigenvalues --    4.79569   4.79576   4.82998   4.83745   4.89108
 Alpha virt. eigenvalues --    4.89111   5.05561   5.05566   5.18068
          Condensed to atoms (all electrons):
 Mulliken charges:
               1
     1  C    0.271598
     2  C    0.244583
     3  C   -0.091745
     4  C   -0.091681
     5  C    0.271579
     6  C    0.244697
     7  C    0.271421
     8  C    0.244687
     9  C   -0.091769
    10  C   -0.091841
    11  C    0.271749
    12  C    0.244630
    13  N   -0.572958
    14  N   -0.501867
    15  N   -0.501757
    16  N   -0.501768
    17  N   -0.572862
    18  N   -0.572851
    19  C    0.244708
    20  C   -0.091771
    21  C    0.271742
    22  C    0.244465
    23  C   -0.091766
    24  C    0.271526
    25  N   -0.572852
    26  N   -0.501768
    27  C    0.244713
    28  C   -0.091769
    29  C    0.271750
    30  C    0.244464
    31  C   -0.091767
    32  C    0.271522
    33  N   -0.572861
    34  N   -0.501757
    35  C   -0.091682
    36  C    0.271572
    37  C    0.244696
    38  C    0.271595
    39  C    0.244579
    40  C   -0.091746
    41  C   -0.091840
    42  C    0.271754
    43  C    0.244634
    44  C    0.271414
    45  C    0.244690
    46  C   -0.091770
    47  N   -0.501865
    48  N   -0.572955
    49  H    0.112857
    50  H    0.112875
    51  H    0.112884
    52  H    0.112888
    53  H    0.112874
    54  H    0.112873
    55  H    0.112874
    56  H    0.112856
    57  H    0.112884
    58  H    0.112889
    59  H    0.112873
    60  H    0.112873
 Sum of Mulliken charges =  -0.00000
 Mulliken charges with hydrogens summed into heavy atoms:
               1
     1  C    0.271598
     2  C    0.244583
     3  C    0.021129
     4  C    0.021203
     5  C    0.271579
     6  C    0.244697
     7  C    0.271421
     8  C    0.244687
     9  C    0.021119
    10  C    0.021032
    11  C    0.271749
    12  C    0.244630
    13  N   -0.572958
    14  N   -0.501867
    15  N   -0.501757
    16  N   -0.501768
    17  N   -0.572862
    18  N   -0.572851
    19  C    0.244708
    20  C    0.021103
    21  C    0.271742
    22  C    0.244465
    23  C    0.021090
    24  C    0.271526
    25  N   -0.572852
    26  N   -0.501768
    27  C    0.244713
    28  C    0.021105
    29  C    0.271750
    30  C    0.244464
    31  C    0.021088
    32  C    0.271522
    33  N   -0.572861
    34  N   -0.501757
    35  C    0.021203
    36  C    0.271572
    37  C    0.244696
    38  C    0.271595
    39  C    0.244579
    40  C    0.021127
    41  C    0.021033
    42  C    0.271754
    43  C    0.244634
    44  C    0.271414
    45  C    0.244690
    46  C    0.021119
    47  N   -0.501865
    48  N   -0.572955
 Electronic spatial extent (au):  <R**2>=          27386.9861
 Charge=             -0.0000 electrons
 Dipole moment (field-independent basis, Debye):
    X=              0.0000    Y=             -0.0001    Z=              0.0005  Tot=              0.0006
 Quadrupole moment (field-independent basis, Debye-Ang):
   XX=           -236.3117   YY=           -236.3169   ZZ=           -262.0339
   XY=             -0.0039   XZ=              0.0000   YZ=              0.0003
 Traceless Quadrupole moment (field-independent basis, Debye-Ang):
   XX=              8.5758   YY=              8.5706   ZZ=            -17.1464
   XY=             -0.0039   XZ=              0.0000   YZ=              0.0003
 Octapole moment (field-independent basis, Debye-Ang**2):
  XXX=              0.0020  YYY=             -0.0006  ZZZ=             -0.0032  XYY=             -0.0000
  XXY=             -0.0026  XXZ=              0.0032  XZZ=             -0.0001  YZZ=             -0.0000
  YYZ=              0.0028  XYZ=             -0.0086
 Hexadecapole moment (field-independent basis, Debye-Ang**3):
 XXXX=         -18007.7488 YYYY=         -18006.1179 ZZZZ=           -254.2395 XXXY=             -0.4006
 XXXZ=             -0.0075 YYYX=              0.0933 YYYZ=             -0.0103 ZZZX=              0.0002
 ZZZY=             -0.0006 XXYY=          -6001.9139 XXZZ=          -3295.0908 YYZZ=          -3294.7073
 XXYZ=              0.0314 YYXZ=              0.0074 ZZXY=             -0.0028
 N-N= 5.351949402685D+03 E-N=-1.543183676199D+04  KE= 2.018276421072D+03
 Calling FoFJK, ICntrl=      2127 FMM=T ISym2X=0 I1Cent= 0 IOpClX= 0 NMat=1 NMatS=1 NMatT=0.
 ***** Axes restored to original set *****
 -------------------------------------------------------------------
 Center     Atomic                   Forces (Hartrees/Bohr)
 Number     Number              X              Y              Z
 -------------------------------------------------------------------
      1        6          -0.005996639    0.004892661    0.000000867
      2        6          -0.001580224   -0.006475222    0.000001279
      3        6           0.003815224    0.006350510   -0.000000371
      4        6           0.007433470   -0.000119351   -0.000001361
      5        6           0.001229341    0.007611210   -0.000005935
      6        6          -0.006330464   -0.001811876    0.000003257
      7        6          -0.002452363    0.007266107   -0.000003719
      8        6           0.006466377   -0.000715506    0.000002740
      9        6          -0.007254121   -0.001433409    0.000003862
     10        6          -0.002425679   -0.006990137   -0.000000997
     11        6          -0.007495232    0.001502861    0.000001343
     12        6           0.003914388    0.005273345   -0.000001510
     13        7          -0.002869987    0.004085779    0.000001763
     14        7           0.002176261   -0.003114150   -0.000003493
     15        7          -0.001636222   -0.003438235   -0.000001004
     16        7           0.003773840    0.000318747    0.000002256
     17        7           0.002148644    0.004551042    0.000000231
     18        7          -0.004979750   -0.000422705    0.000000003
     19        6          -0.004780479    0.004593509   -0.000000484
     20        6           0.003584430   -0.006519058   -0.000000201
     21        6           0.007178901    0.002740932    0.000000652
     22        6           0.002606419   -0.006051239    0.000000041
     23        6          -0.004819436    0.005612536   -0.000002439
     24        6           0.005078733    0.005751419    0.000000402
     25        7           0.004982913    0.000423925    0.000000040
     26        7          -0.003771974   -0.000314541    0.000001108
     27        6           0.004777561   -0.004596214   -0.000000414
     28        6          -0.003588041    0.006524647    0.000000713
     29        6          -0.007189295   -0.002722119    0.000000686
     30        6          -0.002596772    0.006048575   -0.000000830
     31        6           0.004822277   -0.005613856   -0.000002331
     32        6          -0.005080302   -0.005753602    0.000000757
     33        7          -0.002135341   -0.004559725   -0.000000473
     34        7           0.001620006    0.003427835   -0.000000006
     35        6          -0.007429963    0.000119545   -0.000001427
     36        6          -0.001218871   -0.007619308   -0.000001068
     37        6           0.006343483    0.001832688   -0.000000251
     38        6           0.005993948   -0.004894445    0.000001015
     39        6           0.001580633    0.006473231   -0.000000411
     40        6          -0.003818744   -0.006357521    0.000000454
     41        6           0.002432991    0.006996530   -0.000000518
     42        6           0.007498693   -0.001483615    0.000000334
     43        6          -0.003914727   -0.005277298   -0.000000197
     44        6           0.002438279   -0.007279359   -0.000000017
     45        6          -0.006487139    0.000716643    0.000000006
     46        6           0.007252159    0.001433890    0.000001987
     47        7          -0.002163452    0.003114446   -0.000000415
     48        7           0.002864527   -0.004093287    0.000000618
     49        1          -0.000010253    0.000481843    0.000002560
     50        1           0.000451884   -0.000162896    0.000000083
     51        1           0.000348389    0.000303556    0.000001184
     52        1          -0.000426305    0.000258132   -0.000001436
     53        1          -0.000054035    0.000480466    0.000000582
     54        1          -0.000414844   -0.000282226    0.000000084
     55        1          -0.000450404    0.000160315   -0.000001069
     56        1           0.000012929   -0.000483576    0.000002077
     57        1          -0.000348904   -0.000303749    0.000001144
     58        1           0.000426484   -0.000257570   -0.000000928
     59        1           0.000053508   -0.000481352   -0.000000180
     60        1           0.000413271    0.000280220   -0.000000644
 -------------------------------------------------------------------
 Cartesian Forces:  Max     0.007619308 RMS     0.003440204

 GradGradGradGradGradGradGradGradGradGradGradGradGradGradGradGradGradGrad
 Berny optimization.
 FormGI is forming the generalized inverse of G from B-inverse, IUseBI=4.
 Internal  Forces:  Max     0.008429341 RMS     0.002374519
 Search for a local minimum.
 Step number   1 out of a maximum of  360
 All quantities printed in internal units (Hartrees-Bohrs-Radians)
 Mixed Optimization -- RFO/linear search
 Second derivative matrix not updated -- first step.
 ITU=  0
     Eigenvalues ---    0.01577   0.01582   0.01583   0.01619   0.01619
     Eigenvalues ---    0.01621   0.01639   0.01639   0.01646   0.01745
     Eigenvalues ---    0.01764   0.01766   0.01766   0.01776   0.01776
     Eigenvalues ---    0.01800   0.01800   0.01818   0.01825   0.01825
     Eigenvalues ---    0.01833   0.01840   0.01843   0.01843   0.01908
     Eigenvalues ---    0.01909   0.01935   0.01954   0.01954   0.02014
     Eigenvalues ---    0.02023   0.02023   0.02029   0.02055   0.02055
     Eigenvalues ---    0.02055   0.02062   0.02062   0.02066   0.02074
     Eigenvalues ---    0.02115   0.02115   0.02153   0.02154   0.02182
     Eigenvalues ---    0.02292   0.02296   0.02297   0.02320   0.02320
     Eigenvalues ---    0.02320   0.02391   0.02391   0.02591   0.02592
     Eigenvalues ---    0.02592   0.02593   0.16000   0.16000   0.16000
     Eigenvalues ---    0.16000   0.16000   0.16000   0.16000   0.16000
     Eigenvalues ---    0.16000   0.16000   0.16000   0.16000   0.22495
     Eigenvalues ---    0.22504   0.22504   0.22527   0.22527   0.22530
     Eigenvalues ---    0.24506   0.24510   0.24510   0.24619   0.24619
     Eigenvalues ---    0.24758   0.25000   0.25000   0.25000   0.25000
     Eigenvalues ---    0.25000   0.25000   0.25000   0.25000   0.25000
     Eigenvalues ---    0.25000   0.25000   0.25000   0.25000   0.25000
     Eigenvalues ---    0.25000   0.25000   0.25000   0.25000   0.25000
     Eigenvalues ---    0.25000   0.25000   0.31729   0.31733   0.32397
     Eigenvalues ---    0.35139   0.35446   0.35446   0.35447   0.35447
     Eigenvalues ---    0.35448   0.35448   0.35448   0.35449   0.35449
     Eigenvalues ---    0.35450   0.35452   0.35452   0.35551   0.35554
     Eigenvalues ---    0.35555   0.35558   0.35641   0.36419   0.36424
     Eigenvalues ---    0.36745   0.38127   0.38134   0.38207   0.38211
     Eigenvalues ---    0.38266   0.38266   0.38946   0.38951   0.38977
     Eigenvalues ---    0.38999   0.39004   0.39050   0.41275   0.41310
     Eigenvalues ---    0.41489   0.41495   0.41618   0.41624   0.46727
     Eigenvalues ---    0.48171   0.48173   0.52768   0.52776   0.52799
     Eigenvalues ---    0.53052   0.53060   0.53201   0.54026   0.54030
     Eigenvalues ---    0.54035   0.55898   0.55948   0.55953   0.56045
     Eigenvalues ---    0.56050   0.56098   0.58097   0.58102   0.59100
     Eigenvalues ---    0.59344   0.59345   0.59346   0.59620   0.59629
     Eigenvalues ---    0.59632   0.59633   0.59635   0.59675
 RFO step:  Lambda=-4.33808429D-03 EMin= 1.57738879D-02
 Linear search not attempted -- first point.
 Iteration  1 RMS(Cart)=  0.01679450 RMS(Int)=  0.00000792
 Iteration  2 RMS(Cart)=  0.00000833 RMS(Int)=  0.00000080
 Iteration  3 RMS(Cart)=  0.00000000 RMS(Int)=  0.00000080
 Variable       Old X    -DE/DX   Delta X   Delta X   Delta X     New X
                                 (Linear)    (Quad)   (Total)
    R1        2.73498  -0.00012   0.00000  -0.00018  -0.00018   2.73480
    R2        2.68375   0.00728   0.00000   0.01686   0.01686   2.70062
    R3        2.53029   0.00648   0.00000   0.01131   0.01131   2.54160
    R4        2.68373   0.00729   0.00000   0.01690   0.01690   2.70064
    R5        2.75483   0.00207   0.00000   0.00521   0.00521   2.76004
    R6        2.50582   0.00634   0.00000   0.01032   0.01032   2.51613
    R7        2.55722   0.00842   0.00000   0.01555   0.01555   2.57277
    R8        2.73483  -0.00009   0.00000  -0.00010  -0.00010   2.73474
    R9        2.04956   0.00043   0.00000   0.00120   0.00120   2.05076
   R10        2.73486  -0.00008   0.00000  -0.00005  -0.00005   2.73481
   R11        2.55708   0.00843   0.00000   0.01558   0.01558   2.57265
   R12        2.04956   0.00043   0.00000   0.00119   0.00119   2.05074
   R13        2.68394   0.00723   0.00000   0.01674   0.01674   2.70068
   R14        2.73500  -0.00008   0.00000  -0.00007  -0.00007   2.73493
   R15        2.53019   0.00649   0.00000   0.01131   0.01131   2.54150
   R16        2.68389   0.00730   0.00000   0.01691   0.01691   2.70079
   R17        2.75458   0.00208   0.00000   0.00523   0.00523   2.75981
   R18        2.50584   0.00632   0.00000   0.01029   0.01029   2.51612
   R19        2.53019   0.00654   0.00000   0.01140   0.01140   2.54159
   R20        2.50588   0.00638   0.00000   0.01039   0.01039   2.51627
   R21        2.04947   0.00046   0.00000   0.00129   0.00129   2.05076
   R22        2.04951   0.00045   0.00000   0.00124   0.00124   2.05075
   R23        2.53031   0.00651   0.00000   0.01135   0.01135   2.54166
   R24        2.50584   0.00635   0.00000   0.01034   0.01034   2.51618
   R25        2.50582   0.00635   0.00000   0.01032   0.01033   2.51614
   R26        2.50586   0.00634   0.00000   0.01031   0.01031   2.51617
   R27        2.53024   0.00652   0.00000   0.01137   0.01137   2.54161
   R28        2.53032   0.00650   0.00000   0.01133   0.01133   2.54165
   R29        2.75467   0.00206   0.00000   0.00519   0.00519   2.75986
   R30        2.68367   0.00730   0.00000   0.01690   0.01690   2.70057
   R31        2.50587   0.00633   0.00000   0.01030   0.01030   2.51617
   R32        2.55719   0.00843   0.00000   0.01558   0.01558   2.57276
   R33        2.73504  -0.00010   0.00000  -0.00011  -0.00011   2.73492
   R34        2.04953   0.00044   0.00000   0.00123   0.00123   2.05075
   R35        2.68384   0.00729   0.00000   0.01689   0.01689   2.70073
   R36        2.73485  -0.00007   0.00000  -0.00003  -0.00003   2.73482
   R37        2.04953   0.00044   0.00000   0.00122   0.00122   2.05076
   R38        2.53032   0.00650   0.00000   0.01133   0.01133   2.54165
   R39        2.53028   0.00649   0.00000   0.01131   0.01131   2.54159
   R40        2.50584   0.00636   0.00000   0.01034   0.01034   2.51618
   R41        2.75468   0.00206   0.00000   0.00519   0.00519   2.75986
   R42        2.68367   0.00730   0.00000   0.01690   0.01690   2.70057
   R43        2.55718   0.00843   0.00000   0.01558   0.01558   2.57276
   R44        2.73504  -0.00010   0.00000  -0.00011  -0.00011   2.73493
   R45        2.04953   0.00044   0.00000   0.00122   0.00122   2.05075
   R46        2.68387   0.00728   0.00000   0.01687   0.01687   2.70074
   R47        2.73487  -0.00007   0.00000  -0.00004  -0.00004   2.73482
   R48        2.53020   0.00653   0.00000   0.01139   0.01139   2.54160
   R49        2.50584   0.00634   0.00000   0.01030   0.01030   2.51614
   R50        2.04953   0.00044   0.00000   0.00123   0.00123   2.05076
   R51        2.53022   0.00653   0.00000   0.01139   0.01139   2.54161
   R52        2.50586   0.00632   0.00000   0.01028   0.01028   2.51614
   R53        2.73485  -0.00007   0.00000  -0.00005  -0.00004   2.73481
   R54        2.55708   0.00843   0.00000   0.01557   0.01558   2.57266
   R55        2.04955   0.00043   0.00000   0.00119   0.00119   2.05074
   R56        2.68391   0.00724   0.00000   0.01676   0.01676   2.70067
   R57        2.73500  -0.00008   0.00000  -0.00007  -0.00007   2.73493
   R58        2.53020   0.00649   0.00000   0.01131   0.01131   2.54151
   R59        2.68384   0.00731   0.00000   0.01694   0.01694   2.70077
   R60        2.75460   0.00207   0.00000   0.00522   0.00522   2.75983
   R61        2.73498  -0.00012   0.00000  -0.00017  -0.00017   2.73481
   R62        2.68375   0.00728   0.00000   0.01687   0.01686   2.70062
   R63        2.68376   0.00729   0.00000   0.01688   0.01688   2.70064
   R64        2.75484   0.00206   0.00000   0.00520   0.00520   2.76004
   R65        2.50582   0.00634   0.00000   0.01031   0.01031   2.51613
   R66        2.55720   0.00842   0.00000   0.01556   0.01556   2.57277
   R67        2.73485  -0.00009   0.00000  -0.00010  -0.00010   2.73475
   R68        2.04956   0.00043   0.00000   0.00120   0.00120   2.05076
   R69        2.04951   0.00044   0.00000   0.00124   0.00124   2.05075
   R70        2.53028   0.00652   0.00000   0.01137   0.01137   2.54165
   R71        2.50588   0.00639   0.00000   0.01039   0.01040   2.51628
   R72        2.04947   0.00046   0.00000   0.00129   0.00129   2.05076
    A1        2.07854  -0.00047   0.00000  -0.00213  -0.00213   2.07641
    A2        2.09004   0.00095   0.00000   0.00413   0.00413   2.09417
    A3        2.11461  -0.00048   0.00000  -0.00200  -0.00200   2.11261
    A4        2.08663   0.00017   0.00000   0.00050   0.00050   2.08712
    A5        2.13023  -0.00123   0.00000  -0.00460  -0.00460   2.12563
    A6        2.06633   0.00106   0.00000   0.00410   0.00410   2.07043
    A7        2.11788   0.00036   0.00000   0.00183   0.00183   2.11971
    A8        2.12196   0.00004   0.00000   0.00043   0.00043   2.12239
    A9        2.04335  -0.00040   0.00000  -0.00226  -0.00226   2.04109
   A10        2.11782   0.00035   0.00000   0.00180   0.00180   2.11962
   A11        2.04283  -0.00035   0.00000  -0.00197  -0.00197   2.04086
   A12        2.12253   0.00000   0.00000   0.00017   0.00017   2.12270
   A13        2.07882  -0.00050   0.00000  -0.00226  -0.00226   2.07656
   A14        2.11467  -0.00051   0.00000  -0.00211  -0.00211   2.11256
   A15        2.08970   0.00101   0.00000   0.00437   0.00437   2.09406
   A16        2.08640   0.00021   0.00000   0.00067   0.00067   2.08707
   A17        2.13000  -0.00117   0.00000  -0.00439  -0.00439   2.12562
   A18        2.06678   0.00096   0.00000   0.00372   0.00372   2.07050
   A19        2.07896  -0.00056   0.00000  -0.00244  -0.00244   2.07652
   A20        2.08974   0.00101   0.00000   0.00434   0.00434   2.09408
   A21        2.11448  -0.00045   0.00000  -0.00189  -0.00189   2.11259
   A22        2.08668   0.00013   0.00000   0.00033   0.00033   2.08701
   A23        2.12986  -0.00112   0.00000  -0.00419  -0.00419   2.12567
   A24        2.06665   0.00099   0.00000   0.00386   0.00386   2.07051
   A25        2.11768   0.00037   0.00000   0.00190   0.00191   2.11959
   A26        2.12245   0.00001   0.00000   0.00025   0.00025   2.12269
   A27        2.04305  -0.00038   0.00000  -0.00215  -0.00215   2.04090
   A28        2.11791   0.00034   0.00000   0.00176   0.00177   2.11967
   A29        2.04344  -0.00041   0.00000  -0.00236  -0.00236   2.04108
   A30        2.12183   0.00007   0.00000   0.00059   0.00059   2.12243
   A31        2.07867  -0.00051   0.00000  -0.00229  -0.00229   2.07638
   A32        2.11438  -0.00043   0.00000  -0.00177  -0.00177   2.11261
   A33        2.09013   0.00094   0.00000   0.00406   0.00406   2.09420
   A34        2.08675   0.00012   0.00000   0.00033   0.00033   2.08708
   A35        2.13003  -0.00115   0.00000  -0.00432  -0.00432   2.12571
   A36        2.06641   0.00103   0.00000   0.00399   0.00399   2.07040
   A37        2.03863   0.00126   0.00000   0.00482   0.00482   2.04345
   A38        2.03860   0.00202   0.00000   0.00785   0.00785   2.04645
   A39        2.03868   0.00202   0.00000   0.00782   0.00782   2.04650
   A40        2.03853   0.00202   0.00000   0.00785   0.00785   2.04639
   A41        2.03870   0.00123   0.00000   0.00474   0.00474   2.04344
   A42        2.03854   0.00125   0.00000   0.00480   0.00480   2.04334
   A43        2.08659   0.00019   0.00000   0.00057   0.00057   2.08716
   A44        2.06644   0.00101   0.00000   0.00391   0.00391   2.07034
   A45        2.13016  -0.00119   0.00000  -0.00448  -0.00448   2.12568
   A46        2.11784   0.00036   0.00000   0.00184   0.00185   2.11969
   A47        2.12229   0.00001   0.00000   0.00023   0.00023   2.12253
   A48        2.04305  -0.00037   0.00000  -0.00208  -0.00208   2.04097
   A49        2.11451  -0.00047   0.00000  -0.00195  -0.00195   2.11255
   A50        2.09011   0.00098   0.00000   0.00420   0.00420   2.09432
   A51        2.07856  -0.00050   0.00000  -0.00225  -0.00225   2.07632
   A52        2.06640   0.00102   0.00000   0.00395   0.00395   2.07035
   A53        2.12999  -0.00115   0.00000  -0.00432  -0.00432   2.12567
   A54        2.08680   0.00013   0.00000   0.00037   0.00036   2.08716
   A55        2.11789   0.00035   0.00000   0.00181   0.00182   2.11971
   A56        2.12218   0.00003   0.00000   0.00037   0.00037   2.12255
   A57        2.04311  -0.00039   0.00000  -0.00218  -0.00218   2.04093
   A58        2.07869  -0.00053   0.00000  -0.00235  -0.00234   2.07634
   A59        2.11450  -0.00044   0.00000  -0.00185  -0.00186   2.11264
   A60        2.09000   0.00097   0.00000   0.00420   0.00420   2.09420
   A61        2.03855   0.00125   0.00000   0.00480   0.00479   2.04334
   A62        2.03853   0.00202   0.00000   0.00786   0.00786   2.04639
   A63        2.06644   0.00101   0.00000   0.00390   0.00390   2.07034
   A64        2.13015  -0.00119   0.00000  -0.00447  -0.00447   2.12569
   A65        2.08659   0.00019   0.00000   0.00057   0.00057   2.08716
   A66        2.11785   0.00036   0.00000   0.00184   0.00184   2.11969
   A67        2.12231   0.00001   0.00000   0.00022   0.00022   2.12253
   A68        2.04302  -0.00037   0.00000  -0.00206  -0.00206   2.04096
   A69        2.07855  -0.00050   0.00000  -0.00224  -0.00224   2.07631
   A70        2.11452  -0.00047   0.00000  -0.00196  -0.00196   2.11256
   A71        2.09012   0.00097   0.00000   0.00420   0.00420   2.09432
   A72        2.08680   0.00013   0.00000   0.00037   0.00036   2.08717
   A73        2.06639   0.00102   0.00000   0.00395   0.00395   2.07035
   A74        2.12999  -0.00115   0.00000  -0.00432  -0.00432   2.12567
   A75        2.11789   0.00035   0.00000   0.00181   0.00181   2.11971
   A76        2.12216   0.00004   0.00000   0.00039   0.00039   2.12254
   A77        2.04314  -0.00039   0.00000  -0.00220  -0.00220   2.04093
   A78        2.11451  -0.00045   0.00000  -0.00187  -0.00187   2.11264
   A79        2.08999   0.00097   0.00000   0.00421   0.00421   2.09420
   A80        2.07869  -0.00053   0.00000  -0.00234  -0.00234   2.07634
   A81        2.03870   0.00123   0.00000   0.00474   0.00474   2.04344
   A82        2.03866   0.00203   0.00000   0.00784   0.00784   2.04649
   A83        2.11782   0.00035   0.00000   0.00180   0.00180   2.11962
   A84        2.04284  -0.00035   0.00000  -0.00197  -0.00197   2.04087
   A85        2.12253   0.00000   0.00000   0.00017   0.00017   2.12270
   A86        2.07883  -0.00050   0.00000  -0.00226  -0.00226   2.07657
   A87        2.11467  -0.00051   0.00000  -0.00211  -0.00211   2.11256
   A88        2.08969   0.00101   0.00000   0.00437   0.00437   2.09406
   A89        2.13003  -0.00117   0.00000  -0.00441  -0.00441   2.12562
   A90        2.06675   0.00097   0.00000   0.00374   0.00374   2.07049
   A91        2.08641   0.00021   0.00000   0.00066   0.00066   2.08707
   A92        2.09004   0.00095   0.00000   0.00413   0.00413   2.09417
   A93        2.11461  -0.00048   0.00000  -0.00201  -0.00201   2.11261
   A94        2.07853  -0.00047   0.00000  -0.00213  -0.00213   2.07641
   A95        2.08663   0.00017   0.00000   0.00050   0.00049   2.08713
   A96        2.13023  -0.00123   0.00000  -0.00460  -0.00459   2.12563
   A97        2.06633   0.00106   0.00000   0.00410   0.00410   2.07043
   A98        2.11789   0.00035   0.00000   0.00182   0.00182   2.11971
   A99        2.12195   0.00005   0.00000   0.00044   0.00044   2.12239
   A100       2.04335  -0.00040   0.00000  -0.00226  -0.00226   2.04109
   A101       2.11792   0.00034   0.00000   0.00175   0.00175   2.11968
   A102       2.04342  -0.00041   0.00000  -0.00234  -0.00234   2.04108
   A103       2.12184   0.00007   0.00000   0.00059   0.00059   2.12243
   A104       2.07865  -0.00051   0.00000  -0.00227  -0.00227   2.07638
   A105       2.11439  -0.00043   0.00000  -0.00178  -0.00178   2.11261
   A106       2.09015   0.00094   0.00000   0.00406   0.00406   2.09420
   A107       2.13002  -0.00115   0.00000  -0.00431  -0.00431   2.12571
   A108       2.06641   0.00103   0.00000   0.00398   0.00399   2.07040
   A109       2.08675   0.00012   0.00000   0.00033   0.00033   2.08708
   A110       2.08973   0.00101   0.00000   0.00434   0.00434   2.09408
   A111       2.11448  -0.00046   0.00000  -0.00190  -0.00190   2.11259
   A112       2.07897  -0.00056   0.00000  -0.00245  -0.00245   2.07652
   A113       2.08667   0.00013   0.00000   0.00034   0.00034   2.08700
   A114       2.12989  -0.00113   0.00000  -0.00422  -0.00421   2.12567
   A115       2.06663   0.00100   0.00000   0.00388   0.00388   2.07051
   A116       2.11768   0.00038   0.00000   0.00191   0.00191   2.11959
   A117       2.12245   0.00001   0.00000   0.00025   0.00025   2.12269
   A118       2.04306  -0.00039   0.00000  -0.00216  -0.00216   2.04090
   A119       2.03858   0.00203   0.00000   0.00787   0.00788   2.04645
   A120       2.03863   0.00126   0.00000   0.00483   0.00482   2.04345
    D1       -0.00002   0.00000   0.00000   0.00000   0.00000  -0.00002
    D2        3.14157   0.00000   0.00000   0.00001   0.00001   3.14158
    D3        3.14156   0.00000   0.00000   0.00001   0.00001   3.14157
    D4       -0.00003   0.00000   0.00000   0.00001   0.00001  -0.00002
    D5        0.00003  -0.00000   0.00000  -0.00001  -0.00001   0.00003
    D6       -3.14159   0.00000   0.00000   0.00000   0.00000  -3.14159
    D7       -3.14155  -0.00000   0.00000  -0.00001  -0.00001  -3.14157
    D8        0.00001  -0.00000   0.00000  -0.00000  -0.00000   0.00000
    D9       -3.14156  -0.00000   0.00000  -0.00002  -0.00002  -3.14158
   D10        0.00003  -0.00000   0.00000  -0.00001  -0.00001   0.00001
   D11       -0.00003   0.00000   0.00000   0.00001   0.00001  -0.00002
   D12        3.14154   0.00000   0.00000   0.00002   0.00002   3.14156
   D13       -3.14157  -0.00000   0.00000  -0.00001  -0.00001  -3.14158
   D14       -0.00000  -0.00000   0.00000   0.00000   0.00000   0.00000
   D15       -0.00001   0.00000   0.00000   0.00000   0.00000  -0.00001
   D16       -3.14157  -0.00000   0.00000  -0.00001  -0.00001  -3.14158
   D17        3.14154   0.00000   0.00000   0.00002   0.00002   3.14156
   D18       -0.00003   0.00000   0.00000   0.00001   0.00001  -0.00001
   D19       -0.00001   0.00000   0.00000   0.00002   0.00002   0.00001
   D20       -3.14156   0.00000   0.00000   0.00001   0.00001  -3.14155
   D21       -0.00001   0.00000   0.00000   0.00001   0.00001  -0.00001
   D22        3.14158   0.00000   0.00000   0.00000   0.00000   3.14158
   D23        3.14159   0.00000   0.00000   0.00001   0.00001  -3.14159
   D24       -0.00000   0.00000   0.00000   0.00000   0.00000  -0.00000
   D25        0.00004  -0.00000   0.00000  -0.00001  -0.00001   0.00003
   D26       -3.14153  -0.00000   0.00000  -0.00003  -0.00003  -3.14156
   D27       -3.14156  -0.00000   0.00000  -0.00001  -0.00001  -3.14158
   D28        0.00005  -0.00000   0.00000  -0.00003  -0.00003   0.00003
   D29        0.00004  -0.00000   0.00000  -0.00003  -0.00003   0.00001
   D30       -3.14157   0.00000   0.00000   0.00001   0.00001  -3.14157
   D31       -3.14155  -0.00000   0.00000  -0.00004  -0.00004  -3.14159
   D32        0.00003  -0.00000   0.00000  -0.00000  -0.00000   0.00002
   D33       -0.00001   0.00000   0.00000   0.00000   0.00000  -0.00001
   D34        3.14155   0.00000   0.00000   0.00003   0.00003   3.14158
   D35        3.14158   0.00000   0.00000   0.00001   0.00001   3.14158
   D36       -0.00005   0.00000   0.00000   0.00003   0.00003  -0.00002
   D37        0.00005  -0.00000   0.00000  -0.00004  -0.00004   0.00001
   D38       -3.14159  -0.00000   0.00000  -0.00002  -0.00002   3.14158
   D39       -3.14159   0.00000   0.00000   0.00003   0.00003  -3.14156
   D40       -0.00005   0.00000   0.00000   0.00005   0.00005   0.00001
   D41       -0.00004   0.00000   0.00000   0.00004   0.00004  -0.00000
   D42        3.14158   0.00000   0.00000   0.00001   0.00001  -3.14159
   D43       -3.14158  -0.00000   0.00000  -0.00004  -0.00004   3.14157
   D44        0.00004  -0.00000   0.00000  -0.00006  -0.00006  -0.00002
   D45        0.00003  -0.00000   0.00000  -0.00003  -0.00003   0.00000
   D46        3.14157   0.00000   0.00000   0.00005   0.00005  -3.14156
   D47       -0.00002   0.00000   0.00000   0.00002   0.00002   0.00000
   D48       -3.14159  -0.00000   0.00000  -0.00001  -0.00001   3.14158
   D49       -3.14156  -0.00000   0.00000  -0.00002  -0.00002  -3.14157
   D50        0.00006  -0.00000   0.00000  -0.00006  -0.00006   0.00000
   D51       -0.00003   0.00000   0.00000   0.00001   0.00001  -0.00001
   D52       -3.14157  -0.00000   0.00000  -0.00001  -0.00001  -3.14158
   D53        3.14151   0.00000   0.00000   0.00005   0.00005   3.14157
   D54       -0.00003   0.00000   0.00000   0.00003   0.00003  -0.00000
   D55       -0.00001   0.00000   0.00000   0.00002   0.00002   0.00001
   D56       -3.14154  -0.00000   0.00000  -0.00002  -0.00002  -3.14157
   D57        3.14156   0.00000   0.00000   0.00001   0.00001   3.14157
   D58       -0.00005   0.00000   0.00000   0.00005   0.00005  -0.00001
   D59        0.00004  -0.00000   0.00000  -0.00005  -0.00005  -0.00001
   D60        3.14158  -0.00000   0.00000  -0.00003  -0.00003   3.14155
   D61       -0.00001  -0.00000   0.00000  -0.00000  -0.00000  -0.00001
   D62        3.14156   0.00000   0.00000   0.00001   0.00001   3.14157
   D63       -0.00005   0.00000   0.00000   0.00002   0.00002  -0.00002
   D64        3.14152   0.00000   0.00000   0.00003   0.00003   3.14155
   D65        3.14149   0.00000   0.00000   0.00006   0.00006   3.14156
   D66       -0.00004   0.00000   0.00000   0.00002   0.00002  -0.00002
   D67       -3.14148  -0.00000   0.00000  -0.00007  -0.00007  -3.14155
   D68        0.00005  -0.00000   0.00000  -0.00003  -0.00003   0.00002
   D69        0.00001  -0.00000   0.00000  -0.00001  -0.00001   0.00000
   D70       -3.14155  -0.00000   0.00000  -0.00004  -0.00004  -3.14159
   D71       -0.00002   0.00000   0.00000   0.00001   0.00001  -0.00001
   D72        3.14156   0.00000   0.00000   0.00003   0.00003   3.14159
   D73       -3.14150  -0.00000   0.00000  -0.00006  -0.00006  -3.14156
   D74        0.00003  -0.00000   0.00000  -0.00002  -0.00002   0.00001
   D75        0.00004  -0.00000   0.00000  -0.00002  -0.00002   0.00002
   D76        3.14157   0.00000   0.00000   0.00002   0.00002   3.14159
   D77       -0.00011   0.00000   0.00000   0.00006   0.00006  -0.00005
   D78        3.14147   0.00000   0.00000   0.00008   0.00008   3.14155
   D79        3.14154   0.00000   0.00000   0.00002   0.00002   3.14156
   D80       -0.00006   0.00000   0.00000   0.00003   0.00003  -0.00003
   D81       -3.14147  -0.00000   0.00000  -0.00008  -0.00008  -3.14155
   D82        0.00006  -0.00000   0.00000  -0.00003  -0.00003   0.00003
   D83        0.00002  -0.00000   0.00000  -0.00002  -0.00002   0.00001
   D84       -3.14156  -0.00000   0.00000  -0.00002  -0.00002  -3.14158
   D85       -3.14156  -0.00000   0.00000  -0.00002  -0.00002  -3.14158
   D86        0.00004  -0.00000   0.00000  -0.00003  -0.00003   0.00001
   D87        0.00008  -0.00000   0.00000  -0.00004  -0.00004   0.00004
   D88       -3.14150  -0.00000   0.00000  -0.00006  -0.00006  -3.14156
   D89       -3.14152  -0.00000   0.00000  -0.00004  -0.00004  -3.14156
   D90        0.00008  -0.00000   0.00000  -0.00005  -0.00005   0.00003
   D91        0.00004  -0.00000   0.00000  -0.00003  -0.00003   0.00001
   D92       -3.14149  -0.00000   0.00000  -0.00007  -0.00007  -3.14156
   D93       -3.14158   0.00000   0.00000   0.00000   0.00000  -3.14158
   D94        0.00007  -0.00000   0.00000  -0.00004  -0.00004   0.00003
   D95        3.14146   0.00000   0.00000   0.00009   0.00009   3.14155
   D96       -0.00014   0.00000   0.00000   0.00010   0.00010  -0.00004
   D97       -0.00010   0.00000   0.00000   0.00006   0.00006  -0.00004
   D98        3.14148   0.00000   0.00000   0.00006   0.00006   3.14155
   D99        0.00000   0.00000   0.00000  -0.00000  -0.00000   0.00000
   D100       3.14158   0.00000   0.00000   0.00002   0.00002  -3.14159
   D101      -3.14153  -0.00000   0.00000  -0.00004  -0.00004  -3.14157
   D102       0.00005  -0.00000   0.00000  -0.00003  -0.00003   0.00002
   D103      -0.00001   0.00000   0.00000   0.00000   0.00000  -0.00001
   D104       3.14153   0.00000   0.00000   0.00003   0.00003   3.14156
   D105       3.14157   0.00000   0.00000   0.00002   0.00002   3.14159
   D106       0.00003  -0.00000   0.00000  -0.00001  -0.00001   0.00002
   D107       0.00003  -0.00000   0.00000  -0.00002  -0.00002   0.00001
   D108      -3.14150  -0.00000   0.00000  -0.00006  -0.00006  -3.14156
   D109      -0.00002   0.00000   0.00000   0.00001   0.00001  -0.00001
   D110       3.14158  -0.00000   0.00000  -0.00000  -0.00000   3.14158
   D111       3.14151   0.00000   0.00000   0.00006   0.00006   3.14157
   D112      -0.00007   0.00000   0.00000   0.00004   0.00004  -0.00003
   D113       0.00003  -0.00000   0.00000  -0.00002  -0.00002   0.00001
   D114      -3.14157  -0.00000   0.00000  -0.00002  -0.00002  -3.14159
   D115      -3.14154  -0.00000   0.00000  -0.00004  -0.00004  -3.14158
   D116       0.00005  -0.00000   0.00000  -0.00004  -0.00004   0.00001
   D117      -3.14154  -0.00000   0.00000  -0.00004  -0.00004  -3.14158
   D118       0.00004  -0.00000   0.00000  -0.00002  -0.00002   0.00002
   D119       0.00003  -0.00000   0.00000  -0.00002  -0.00002   0.00001
   D120      -3.14157   0.00000   0.00000  -0.00000  -0.00000  -3.14158
   D121       0.00003  -0.00000   0.00000  -0.00001  -0.00001   0.00002
   D122       3.14157   0.00000   0.00000   0.00002   0.00002   3.14159
   D123      -3.14152  -0.00000   0.00000  -0.00004  -0.00004  -3.14157
   D124       0.00001  -0.00000   0.00000  -0.00001  -0.00001   0.00000
   D125      -0.00006   0.00000   0.00000   0.00004   0.00004  -0.00003
   D126       3.14153   0.00000   0.00000   0.00004   0.00004   3.14156
   D127       3.14149   0.00000   0.00000   0.00006   0.00006   3.14156
   D128      -0.00010   0.00000   0.00000   0.00007   0.00007  -0.00003
   D129       0.00002  -0.00000   0.00000  -0.00001  -0.00001   0.00001
   D130      -3.14154  -0.00000   0.00000  -0.00004  -0.00004  -3.14158
   D131       3.14150   0.00000   0.00000   0.00005   0.00005   3.14156
   D132      -0.00003   0.00000   0.00000   0.00002   0.00002  -0.00001
   D133       3.14154   0.00000   0.00000   0.00003   0.00003   3.14157
   D134      -0.00003   0.00000   0.00000   0.00002   0.00002  -0.00001
   D135       0.00002  -0.00000   0.00000  -0.00001  -0.00001   0.00001
   D136      -3.14152  -0.00000   0.00000  -0.00003  -0.00003  -3.14156
   D137      -3.14152  -0.00000   0.00000  -0.00003  -0.00003  -3.14155
   D138       0.00005  -0.00000   0.00000  -0.00003  -0.00003   0.00003
   D139       0.00006  -0.00000   0.00000  -0.00003  -0.00003   0.00003
   D140      -3.14155  -0.00000   0.00000  -0.00002  -0.00002  -3.14157
   D141      -0.00002   0.00000   0.00000   0.00002   0.00002  -0.00001
   D142       3.14155   0.00000   0.00000   0.00003   0.00003   3.14157
   D143       3.14158   0.00000   0.00000   0.00001   0.00001   3.14159
   D144      -0.00004   0.00000   0.00000   0.00002   0.00002  -0.00001
   D145       0.00008  -0.00000   0.00000  -0.00004  -0.00004   0.00004
   D146      -3.14156  -0.00000   0.00000  -0.00003  -0.00003  -3.14158
   D147      -3.14153  -0.00000   0.00000  -0.00002  -0.00002  -3.14155
   D148       0.00002  -0.00000   0.00000  -0.00001  -0.00001   0.00002
   D149      -0.00004   0.00000   0.00000   0.00002   0.00002  -0.00002
   D150       3.14157   0.00000   0.00000   0.00001   0.00001   3.14158
   D151       3.14156  -0.00000   0.00000  -0.00000  -0.00000   3.14156
   D152      -0.00001  -0.00000   0.00000  -0.00001  -0.00001  -0.00002
   D153      -0.00000   0.00000   0.00000   0.00001   0.00001   0.00001
   D154       3.14158   0.00000   0.00000   0.00003   0.00003  -3.14158
   D155       0.00001  -0.00000   0.00000  -0.00001  -0.00001  -0.00000
   D156      -3.14156  -0.00000   0.00000  -0.00002  -0.00002  -3.14158
   D157       3.14155   0.00000   0.00000   0.00001   0.00001   3.14157
   D158      -0.00002   0.00000   0.00000   0.00000   0.00000  -0.00001
   D159       3.14150   0.00000   0.00000   0.00005   0.00005   3.14155
   D160      -0.00005   0.00000   0.00000   0.00004   0.00004  -0.00001
   D161      -0.00005   0.00000   0.00000   0.00003   0.00003  -0.00002
   D162       3.14159   0.00000   0.00000   0.00002   0.00002  -3.14158
   D163       3.14158  -0.00000   0.00000  -0.00000  -0.00000   3.14158
   D164       0.00001  -0.00000   0.00000  -0.00001  -0.00001  -0.00000
   D165       0.00000  -0.00000   0.00000  -0.00001  -0.00001  -0.00001
   D166      -3.14157  -0.00000   0.00000  -0.00002  -0.00002  -3.14159
   D167      -0.00005   0.00000   0.00000   0.00003   0.00003  -0.00002
   D168      -3.14159   0.00000   0.00000   0.00001   0.00001  -3.14158
   D169       3.14153   0.00000   0.00000   0.00004   0.00004   3.14157
   D170      -0.00001   0.00000   0.00000   0.00001   0.00001   0.00001
   D171      -0.00001  -0.00000   0.00000  -0.00000  -0.00000  -0.00001
   D172       3.14157  -0.00000   0.00000  -0.00001  -0.00001   3.14157
   D173      -3.14156  -0.00000   0.00000  -0.00001  -0.00001  -3.14157
   D174       0.00002  -0.00000   0.00000  -0.00001  -0.00001   0.00001
   D175      -3.14153  -0.00000   0.00000  -0.00003  -0.00003  -3.14156
   D176       0.00001  -0.00000   0.00000  -0.00001  -0.00001   0.00001
   D177       0.00002  -0.00000   0.00000  -0.00002  -0.00002  -0.00000
   D178       3.14157  -0.00000   0.00000  -0.00000  -0.00000   3.14156
   D179      -0.00000   0.00000   0.00000   0.00001   0.00001   0.00001
   D180      -3.14155   0.00000   0.00000   0.00001   0.00001  -3.14154
   D181      -0.00000   0.00000   0.00000   0.00000   0.00000   0.00000
   D182       3.14157   0.00000   0.00000   0.00001   0.00001   3.14158
   D183      -3.14158  -0.00000   0.00000  -0.00000  -0.00000  -3.14158
   D184      -0.00001   0.00000   0.00000   0.00001   0.00001   0.00000
   D185       0.00001   0.00000   0.00000   0.00001   0.00001   0.00001
   D186      -3.14158   0.00000   0.00000   0.00001   0.00001  -3.14157
   D187       3.14158   0.00000   0.00000   0.00001   0.00001  -3.14159
   D188      -0.00000   0.00000   0.00000   0.00002   0.00002   0.00001
   D189      -0.00002   0.00000   0.00000   0.00000   0.00000  -0.00002
   D190       3.14156  -0.00000   0.00000  -0.00000  -0.00000   3.14156
   D191      -0.00002  -0.00000   0.00000  -0.00000  -0.00000  -0.00003
   D192       3.14153   0.00000   0.00000   0.00001   0.00001   3.14154
         Item               Value     Threshold  Converged?
 Maximum Force            0.008429     0.000450     NO 
 RMS     Force            0.002375     0.000300     NO 
 Maximum Displacement     0.047923     0.001800     NO 
 RMS     Displacement     0.016799     0.001200     NO 
 Predicted change in Energy=-2.189035D-03
 GradGradGradGradGradGradGradGradGradGradGradGradGradGradGradGradGradGrad

 Stoichiometry    C36H12N12
 Framework group  C1[X(C36H12N12)]
 Deg. of freedom   174
 Full point group                 C1      NOp   1
 Largest Abelian subgroup         C1      NOp   1
 Largest concise Abelian subgroup C1      NOp   1
                         Standard orientation:                         
 ---------------------------------------------------------------------
 Center     Atomic      Atomic             Coordinates (Angstroms)
 Number     Number       Type             X           Y           Z
 ---------------------------------------------------------------------
      1          6           0        2.977901   -4.006785    0.000037
      2          6           0        0.518156   -3.575551   -0.000065
      3          6           0        1.408064   -5.888128    0.000079
      4          6           0       -4.395358   -4.163662    0.000065
      5          6           0       -1.981132   -4.582117    0.000007
      6          6           0       -2.837557   -2.236435   -0.000065
      7          6           0       -4.177749   -2.732917   -0.000001
      8          6           0       -1.720315   -3.176981   -0.000068
      9          6           0       -3.353905   -5.040449    0.000072
     10          6           0        2.688211   -5.424689    0.000092
     11          6           0        0.277843   -4.984317    0.000017
     12          6           0        1.891468   -3.078342   -0.000059
     13          7           0       -0.974734   -5.474262    0.000047
     14          7           0       -0.479520   -2.693802   -0.000112
     15          7           0       -2.572984   -0.931511   -0.000105
     16          7           0        2.093387   -1.762237   -0.000118
     17          7           0       -5.228416   -1.893275    0.000020
     18          7           0        4.253801   -3.581358    0.000075
     19          6           0       -3.355881    1.339149   -0.000064
     20          6           0       -5.803633    1.724626    0.000028
     21          6           0       -4.959132   -0.575545   -0.000012
     22          6           0       -3.611866   -0.098699   -0.000069
     23          6           0       -6.042267    0.384255    0.000010
     24          6           0       -4.455731    2.251617    0.000016
     25          7           0       -4.253801    3.581358    0.000072
     26          7           0       -2.093386    1.762238   -0.000118
     27          6           0        3.355880   -1.339150   -0.000057
     28          6           0        5.803634   -1.724626    0.000076
     29          6           0        4.959138    0.575549    0.000003
     30          6           0        3.611869    0.098697   -0.000067
     31          6           0        6.042271   -0.384258    0.000057
     32          6           0        4.455730   -2.251619    0.000035
     33          7           0        5.228420    1.893271    0.000024
     34          7           0        2.572985    0.931507   -0.000113
     35          6           0        4.395358    4.163660    0.000038
     36          6           0        1.981133    4.582113    0.000008
     37          6           0        2.837564    2.236437   -0.000078
     38          6           0       -2.977905    4.006785    0.000049
     39          6           0       -0.518158    3.575553   -0.000067
     40          6           0       -1.408068    5.888131    0.000134
     41          6           0       -2.688213    5.424691    0.000139
     42          6           0       -0.277841    4.984322    0.000038
     43          6           0       -1.891471    3.078343   -0.000058
     44          6           0        4.177746    2.732917   -0.000010
     45          6           0        1.720315    3.176984   -0.000080
     46          6           0        3.353904    5.040449    0.000051
     47          7           0        0.479518    2.693802   -0.000132
     48          7           0        0.974730    5.474262    0.000062
     49          1           0       -7.051842   -0.013799    0.000010
     50          1           0       -6.613807    2.446638    0.000054
     51          1           0       -5.425772   -4.504135    0.000106
     52          1           0       -3.513791   -6.113822    0.000134
     53          1           0        1.187946   -6.950785    0.000125
     54          1           0        3.537593   -6.100139    0.000150
     55          1           0        6.613802   -2.446646    0.000129
     56          1           0        7.051850    0.013787    0.000081
     57          1           0        5.425772    4.504133    0.000069
     58          1           0        3.513788    6.113822    0.000103
     59          1           0       -1.187955    6.950789    0.000212
     60          1           0       -3.537598    6.100137    0.000219
 ---------------------------------------------------------------------
 Rotational constants (GHZ):      0.0693509      0.0693448      0.0346739
 Standard basis: 6-31G(d,p) (6D, 7F)
 There are   780 symmetry adapted cartesian basis functions of A   symmetry.
 There are   780 symmetry adapted basis functions of A   symmetry.
   780 basis functions,  1428 primitive gaussians,   780 cartesian basis functions
   156 alpha electrons      156 beta electrons
       nuclear repulsion energy      5329.2015020181 Hartrees.
 NAtoms=   60 NActive=   60 NUniq=   60 SFac= 1.00D+00 NAtFMM=   60 NAOKFM=T Big=T
 Integral buffers will be    131072 words long.
 Raffenetti 2 integral format.
 Two-electron integral symmetry is turned on.
 One-electron integrals computed using PRISM.
 NBasis=   780 RedAO= T EigKep=  2.22D-04  NBF=   780
 NBsUse=   780 1.00D-06 EigRej= -1.00D+00 NBFU=   780
 Initial guess from the checkpoint file:  "/scratch/tmp/3419170/Gau-179605.chk"
 B after Tr=    -0.000000   -0.000000   -0.000000
         Rot=    0.923735   -0.000000    0.000000    0.383032 Ang= -45.04 deg.
 ExpMin= 1.61D-01 ExpMax= 4.17D+03 ExpMxC= 6.27D+02 IAcc=1 IRadAn=         1 AccDes= 0.00D+00
 Harris functional with IExCor=  402 and IRadAn=       1 diagonalized for initial guess.
 HarFok:  IExCor=  402 AccDes= 0.00D+00 IRadAn=         1 IDoV= 1 UseB2=F ITyADJ=14
 ICtDFT=  3500011 ScaDFX=  1.000000  1.000000  1.000000  1.000000
 FoFCou: FMM=F IPFlag=           0 FMFlag=      100000 FMFlg1=        2001
         NFxFlg=           0 DoJE=T BraDBF=F KetDBF=T FulRan=T
         wScrn=  0.000000 ICntrl=     500 IOpCl=  0 I1Cent=   200000004 NGrid=           0
         NMat0=    1 NMatS0=      1 NMatT0=    0 NMatD0=    1 NMtDS0=    0 NMtDT0=    0
 Petite list used in FoFCou.
 Requested convergence on RMS density matrix=1.00D-08 within  64 cycles.
 Requested convergence on MAX density matrix=1.00D-06.
 Requested convergence on             energy=1.00D-06.
 No special actions if energy rises.
 Integral accuracy reduced to 1.0D-05 until final iterations.
 Initial convergence to 1.0D-05 achieved.  Increase integral accuracy.
 SCF Done:  E(RB3LYP) =  -2036.17338394     A.U. after   11 cycles
            NFock= 11  Conv=0.58D-08     -V/T= 2.0093
 QCSCF skips out because SCF is already converged.
 Calling FoFJK, ICntrl=      2127 FMM=T ISym2X=0 I1Cent= 0 IOpClX= 0 NMat=1 NMatS=1 NMatT=0.
 ***** Axes restored to original set *****
 -------------------------------------------------------------------
 Center     Atomic                   Forces (Hartrees/Bohr)
 Number     Number              X              Y              Z
 -------------------------------------------------------------------
      1        6          -0.001076524    0.000856310   -0.000000167
      2        6           0.000564949   -0.001587899    0.000000295
      3        6           0.001725347    0.000780089    0.000000146
      4        6           0.001602643   -0.001120042   -0.000001116
      5        6           0.000279162    0.001420894    0.000001824
      6        6          -0.000950490   -0.001225112   -0.000001095
      7        6          -0.000500398    0.001223552    0.000001262
      8        6           0.001195093   -0.001143696   -0.000000086
      9        6          -0.001383749   -0.001412994   -0.000000659
     10        6           0.000525806   -0.001759897   -0.000000121
     11        6          -0.001333832    0.000300556   -0.000000401
     12        6           0.001617510    0.000574209   -0.000000304
     13        7          -0.000208737    0.000186582   -0.000000512
     14        7           0.000165525   -0.000142597    0.000000311
     15        7          -0.000129442   -0.000296082    0.000000585
     16        7           0.000238050   -0.000045268    0.000001444
     17        7           0.000145521    0.000271682   -0.000000666
     18        7          -0.000243960    0.000031489   -0.000000163
     19        6          -0.001650577    0.000211084   -0.000000427
     20        6          -0.000221282   -0.001950242    0.000000407
     21        6           0.001231807    0.000400034   -0.000000696
     22        6          -0.000280718   -0.001516733   -0.000000107
     23        6          -0.001858427    0.000495789   -0.000000225
     24        6           0.000948021    0.001084516   -0.000000556
     25        7           0.000244486   -0.000029831   -0.000000285
     26        7          -0.000237533    0.000046765    0.000001106
     27        6           0.001649163   -0.000211923   -0.000000562
     28        6           0.000220829    0.001952894    0.000000503
     29        6          -0.001235884   -0.000393296   -0.000000353
     30        6           0.000283500    0.001515144    0.000000116
     31        6           0.001859610   -0.000496919   -0.000000493
     32        6          -0.000947815   -0.001085495   -0.000000663
     33        7          -0.000138852   -0.000275304   -0.000000344
     34        7           0.000129682    0.000291163    0.000000245
     35        6          -0.001601627    0.001120216   -0.000000513
     36        6          -0.000273323   -0.001422417    0.000000249
     37        6           0.000955334    0.001234317   -0.000000464
     38        6           0.001075223   -0.000857862   -0.000000061
     39        6          -0.000566063    0.001585992    0.000000432
     40        6          -0.001726650   -0.000782153   -0.000000310
     41        6          -0.000525256    0.001762067   -0.000000152
     42        6           0.001335228   -0.000294428    0.000000182
     43        6          -0.001617271   -0.000575069   -0.000000342
     44        6           0.000493428   -0.001228016    0.000000212
     45        6          -0.001200533    0.001146256   -0.000000135
     46        6           0.001383040    0.001413029    0.000000053
     47        7          -0.000164838    0.000140923    0.000000898
     48        7           0.000204503   -0.000190382   -0.000000146
     49        1           0.000256421   -0.000148501    0.000000822
     50        1          -0.000046822    0.000276319    0.000000064
     51        1          -0.000266176    0.000111162    0.000000583
     52        1           0.000244761    0.000133949   -0.000000271
     53        1          -0.000205319   -0.000174204    0.000000147
     54        1          -0.000006625    0.000271879   -0.000000016
     55        1           0.000047033   -0.000277093   -0.000000233
     56        1          -0.000255811    0.000148187    0.000000657
     57        1           0.000266050   -0.000111277    0.000000525
     58        1          -0.000244725   -0.000134142   -0.000000215
     59        1           0.000205094    0.000174216   -0.000000123
     60        1           0.000006439   -0.000272387   -0.000000086
 -------------------------------------------------------------------
 Cartesian Forces:  Max     0.001952894 RMS     0.000750066

 GradGradGradGradGradGradGradGradGradGradGradGradGradGradGradGradGradGrad
 Berny optimization.
 Using GEDIIS/GDIIS optimizer.
 FormGI is forming the generalized inverse of G from B-inverse, IUseBI=4.
 Internal  Forces:  Max     0.002096090 RMS     0.000493866
 Search for a local minimum.
 Step number   2 out of a maximum of  360
 All quantities printed in internal units (Hartrees-Bohrs-Radians)
 Mixed Optimization -- En-DIIS/RFO-DIIS
 Update second derivatives using D2CorX and points    1    2
 DE= -2.08D-03 DEPred=-2.19D-03 R= 9.49D-01
 TightC=F SS=  1.41D+00  RLast= 9.60D-02 DXNew= 5.0454D-01 2.8805D-01
 Trust test= 9.49D-01 RLast= 9.60D-02 DXMaxT set to 3.00D-01
 ITU=  1  0
 Use linear search instead of GDIIS.
     Eigenvalues ---    0.01578   0.01582   0.01583   0.01619   0.01619
     Eigenvalues ---    0.01621   0.01639   0.01639   0.01647   0.01745
     Eigenvalues ---    0.01764   0.01766   0.01766   0.01776   0.01776
     Eigenvalues ---    0.01800   0.01800   0.01818   0.01825   0.01825
     Eigenvalues ---    0.01833   0.01839   0.01842   0.01842   0.01908
     Eigenvalues ---    0.01908   0.01935   0.01955   0.01955   0.02014
     Eigenvalues ---    0.02024   0.02024   0.02030   0.02056   0.02056
     Eigenvalues ---    0.02056   0.02063   0.02063   0.02067   0.02075
     Eigenvalues ---    0.02116   0.02116   0.02155   0.02155   0.02184
     Eigenvalues ---    0.02293   0.02297   0.02297   0.02321   0.02321
     Eigenvalues ---    0.02321   0.02393   0.02393   0.02591   0.02592
     Eigenvalues ---    0.02592   0.02593   0.16000   0.16000   0.16000
     Eigenvalues ---    0.16000   0.16000   0.16000   0.16000   0.16000
     Eigenvalues ---    0.16000   0.16000   0.16000   0.16036   0.22497
     Eigenvalues ---    0.22506   0.22506   0.22529   0.22529   0.22532
     Eigenvalues ---    0.24503   0.24506   0.24506   0.24616   0.24616
     Eigenvalues ---    0.24771   0.24999   0.25000   0.25000   0.25000
     Eigenvalues ---    0.25000   0.25000   0.25000   0.25000   0.25000
     Eigenvalues ---    0.25000   0.25000   0.25000   0.25000   0.25000
     Eigenvalues ---    0.25000   0.25000   0.25000   0.25000   0.25000
     Eigenvalues ---    0.25000   0.26131   0.31728   0.31732   0.32405
     Eigenvalues ---    0.34962   0.35181   0.35446   0.35447   0.35447
     Eigenvalues ---    0.35447   0.35448   0.35448   0.35449   0.35449
     Eigenvalues ---    0.35450   0.35451   0.35452   0.35540   0.35569
     Eigenvalues ---    0.35573   0.35591   0.35594   0.35653   0.36439
     Eigenvalues ---    0.36443   0.36764   0.38139   0.38209   0.38212
     Eigenvalues ---    0.38265   0.38266   0.38959   0.38965   0.39001
     Eigenvalues ---    0.39019   0.39024   0.39063   0.41280   0.41489
     Eigenvalues ---    0.41499   0.41619   0.41625   0.41759   0.46387
     Eigenvalues ---    0.48166   0.48168   0.52774   0.52782   0.52805
     Eigenvalues ---    0.53061   0.53069   0.53081   0.54039   0.54043
     Eigenvalues ---    0.54048   0.55928   0.55976   0.55982   0.56071
     Eigenvalues ---    0.56076   0.56124   0.58101   0.58106   0.59343
     Eigenvalues ---    0.59345   0.59346   0.59631   0.59639   0.59642
     Eigenvalues ---    0.59643   0.59646   0.59686   0.65588
 RFO step:  Lambda=-2.16762311D-04 EMin= 1.57754987D-02
 Quartic linear search produced a step of -0.05512.
 Iteration  1 RMS(Cart)=  0.00360788 RMS(Int)=  0.00000072
 Iteration  2 RMS(Cart)=  0.00000137 RMS(Int)=  0.00000013
 Iteration  3 RMS(Cart)=  0.00000000 RMS(Int)=  0.00000013
 Variable       Old X    -DE/DX   Delta X   Delta X   Delta X     New X
                                 (Linear)    (Quad)   (Total)
    R1        2.73480  -0.00151   0.00001  -0.00370  -0.00369   2.73111
    R2        2.70062   0.00072  -0.00093   0.00342   0.00249   2.70311
    R3        2.54160  -0.00065  -0.00062   0.00022  -0.00041   2.54119
    R4        2.70064   0.00073  -0.00093   0.00345   0.00251   2.70315
    R5        2.76004  -0.00210  -0.00029  -0.00478  -0.00507   2.75497
    R6        2.51613  -0.00092  -0.00057  -0.00038  -0.00095   2.51519
    R7        2.57277   0.00003  -0.00086   0.00177   0.00091   2.57368
    R8        2.73474  -0.00156   0.00001  -0.00381  -0.00380   2.73094
    R9        2.05076  -0.00004  -0.00007   0.00004  -0.00003   2.05073
   R10        2.73481  -0.00154   0.00000  -0.00375  -0.00375   2.73106
   R11        2.57265   0.00009  -0.00086   0.00188   0.00102   2.57367
   R12        2.05074  -0.00002  -0.00007   0.00007   0.00000   2.05075
   R13        2.70068   0.00072  -0.00092   0.00340   0.00248   2.70316
   R14        2.73493  -0.00162   0.00000  -0.00395  -0.00395   2.73099
   R15        2.54150  -0.00059  -0.00062   0.00030  -0.00032   2.54117
   R16        2.70079   0.00066  -0.00093   0.00329   0.00236   2.70315
   R17        2.75981  -0.00202  -0.00029  -0.00458  -0.00486   2.75495
   R18        2.51612  -0.00089  -0.00057  -0.00033  -0.00090   2.51523
   R19        2.54159  -0.00062  -0.00063   0.00027  -0.00036   2.54124
   R20        2.51627  -0.00098  -0.00057  -0.00047  -0.00104   2.51523
   R21        2.05076  -0.00004  -0.00007   0.00005  -0.00002   2.05074
   R22        2.05075  -0.00002  -0.00007   0.00008   0.00001   2.05076
   R23        2.54166  -0.00067  -0.00063   0.00018  -0.00045   2.54121
   R24        2.51618  -0.00088  -0.00057  -0.00032  -0.00089   2.51529
   R25        2.51614  -0.00090  -0.00057  -0.00034  -0.00090   2.51524
   R26        2.51617  -0.00096  -0.00057  -0.00043  -0.00100   2.51517
   R27        2.54161  -0.00062  -0.00063   0.00025  -0.00037   2.54124
   R28        2.54165  -0.00059  -0.00062   0.00030  -0.00032   2.54133
   R29        2.75986  -0.00203  -0.00029  -0.00462  -0.00490   2.75496
   R30        2.70057   0.00072  -0.00093   0.00342   0.00249   2.70306
   R31        2.51617  -0.00096  -0.00057  -0.00044  -0.00100   2.51517
   R32        2.57276   0.00008  -0.00086   0.00185   0.00099   2.57376
   R33        2.73492  -0.00159   0.00001  -0.00387  -0.00387   2.73106
   R34        2.05075  -0.00003  -0.00007   0.00005  -0.00002   2.05073
   R35        2.70073   0.00064  -0.00093   0.00324   0.00231   2.70304
   R36        2.73482  -0.00155   0.00000  -0.00377  -0.00377   2.73105
   R37        2.05076  -0.00003  -0.00007   0.00005  -0.00002   2.05074
   R38        2.54165  -0.00060  -0.00062   0.00030  -0.00032   2.54133
   R39        2.54159  -0.00064  -0.00062   0.00022  -0.00040   2.54119
   R40        2.51618  -0.00088  -0.00057  -0.00031  -0.00088   2.51529
   R41        2.75986  -0.00203  -0.00029  -0.00462  -0.00490   2.75496
   R42        2.70057   0.00072  -0.00093   0.00342   0.00249   2.70306
   R43        2.57276   0.00008  -0.00086   0.00185   0.00100   2.57375
   R44        2.73493  -0.00159   0.00001  -0.00388  -0.00387   2.73106
   R45        2.05075  -0.00003  -0.00007   0.00005  -0.00002   2.05073
   R46        2.70074   0.00064  -0.00093   0.00324   0.00231   2.70304
   R47        2.73482  -0.00155   0.00000  -0.00378  -0.00377   2.73105
   R48        2.54160  -0.00062  -0.00063   0.00026  -0.00036   2.54123
   R49        2.51614  -0.00090  -0.00057  -0.00034  -0.00091   2.51523
   R50        2.05076  -0.00003  -0.00007   0.00005  -0.00002   2.05074
   R51        2.54161  -0.00062  -0.00063   0.00026  -0.00036   2.54124
   R52        2.51614  -0.00089  -0.00057  -0.00034  -0.00090   2.51523
   R53        2.73481  -0.00154   0.00000  -0.00375  -0.00375   2.73106
   R54        2.57266   0.00009  -0.00086   0.00188   0.00102   2.57367
   R55        2.05074  -0.00002  -0.00007   0.00007   0.00001   2.05075
   R56        2.70067   0.00072  -0.00092   0.00341   0.00249   2.70315
   R57        2.73493  -0.00162   0.00000  -0.00395  -0.00395   2.73098
   R58        2.54151  -0.00060  -0.00062   0.00030  -0.00033   2.54118
   R59        2.70077   0.00066  -0.00093   0.00331   0.00237   2.70315
   R60        2.75983  -0.00202  -0.00029  -0.00459  -0.00488   2.75495
   R61        2.73481  -0.00151   0.00001  -0.00370  -0.00369   2.73111
   R62        2.70062   0.00072  -0.00093   0.00342   0.00249   2.70311
   R63        2.70064   0.00073  -0.00093   0.00344   0.00251   2.70315
   R64        2.76004  -0.00210  -0.00029  -0.00479  -0.00507   2.75497
   R65        2.51613  -0.00092  -0.00057  -0.00038  -0.00095   2.51518
   R66        2.57277   0.00003  -0.00086   0.00177   0.00091   2.57368
   R67        2.73475  -0.00156   0.00001  -0.00381  -0.00380   2.73094
   R68        2.05076  -0.00004  -0.00007   0.00004  -0.00003   2.05073
   R69        2.05075  -0.00002  -0.00007   0.00008   0.00001   2.05076
   R70        2.54165  -0.00067  -0.00063   0.00018  -0.00044   2.54120
   R71        2.51628  -0.00098  -0.00057  -0.00047  -0.00104   2.51524
   R72        2.05076  -0.00004  -0.00007   0.00005  -0.00002   2.05074
    A1        2.07641   0.00021   0.00012   0.00049   0.00060   2.07701
    A2        2.09417  -0.00043  -0.00023  -0.00111  -0.00133   2.09284
    A3        2.11261   0.00022   0.00011   0.00062   0.00073   2.11334
    A4        2.08712  -0.00010  -0.00003  -0.00022  -0.00024   2.08688
    A5        2.12563   0.00053   0.00025   0.00144   0.00170   2.12733
    A6        2.07043  -0.00043  -0.00023  -0.00123  -0.00145   2.06898
    A7        2.11971  -0.00009  -0.00010  -0.00019  -0.00029   2.11942
    A8        2.12239  -0.00023  -0.00002  -0.00140  -0.00143   2.12096
    A9        2.04109   0.00033   0.00012   0.00159   0.00172   2.04281
   A10        2.11962  -0.00008  -0.00010  -0.00013  -0.00023   2.11940
   A11        2.04086   0.00034   0.00011   0.00172   0.00183   2.04269
   A12        2.12270  -0.00026  -0.00001  -0.00159  -0.00160   2.12110
   A13        2.07656   0.00020   0.00012   0.00041   0.00053   2.07710
   A14        2.11256   0.00024   0.00012   0.00069   0.00080   2.11336
   A15        2.09406  -0.00043  -0.00024  -0.00110  -0.00134   2.09273
   A16        2.08707  -0.00014  -0.00004  -0.00035  -0.00038   2.08669
   A17        2.12562   0.00056   0.00024   0.00158   0.00182   2.12744
   A18        2.07050  -0.00042  -0.00020  -0.00124  -0.00144   2.06906
   A19        2.07652   0.00021   0.00013   0.00043   0.00057   2.07708
   A20        2.09408  -0.00045  -0.00024  -0.00115  -0.00139   2.09270
   A21        2.11259   0.00024   0.00010   0.00071   0.00082   2.11341
   A22        2.08701  -0.00011  -0.00002  -0.00026  -0.00028   2.08673
   A23        2.12567   0.00053   0.00023   0.00150   0.00173   2.12740
   A24        2.07051  -0.00042  -0.00021  -0.00124  -0.00145   2.06906
   A25        2.11959  -0.00008  -0.00011  -0.00011  -0.00022   2.11937
   A26        2.12269  -0.00024  -0.00001  -0.00144  -0.00145   2.12124
   A27        2.04090   0.00032   0.00012   0.00155   0.00167   2.04257
   A28        2.11967  -0.00008  -0.00010  -0.00012  -0.00022   2.11946
   A29        2.04108   0.00031   0.00013   0.00149   0.00162   2.04270
   A30        2.12243  -0.00023  -0.00003  -0.00137  -0.00140   2.12102
   A31        2.07638   0.00021   0.00013   0.00045   0.00057   2.07696
   A32        2.11261   0.00024   0.00010   0.00073   0.00082   2.11343
   A33        2.09420  -0.00044  -0.00022  -0.00117  -0.00140   2.09280
   A34        2.08708  -0.00015  -0.00002  -0.00041  -0.00043   2.08665
   A35        2.12571   0.00053   0.00024   0.00150   0.00174   2.12745
   A36        2.07040  -0.00039  -0.00022  -0.00109  -0.00131   2.06909
   A37        2.04345  -0.00072  -0.00027  -0.00198  -0.00225   2.04120
   A38        2.04645  -0.00082  -0.00043  -0.00237  -0.00280   2.04365
   A39        2.04650  -0.00087  -0.00043  -0.00255  -0.00298   2.04352
   A40        2.04639  -0.00082  -0.00043  -0.00236  -0.00280   2.04359
   A41        2.04344  -0.00073  -0.00026  -0.00207  -0.00233   2.04111
   A42        2.04334  -0.00069  -0.00026  -0.00189  -0.00216   2.04119
   A43        2.08716  -0.00011  -0.00003  -0.00022  -0.00026   2.08690
   A44        2.07034  -0.00042  -0.00022  -0.00123  -0.00145   2.06889
   A45        2.12568   0.00053   0.00025   0.00146   0.00170   2.12739
   A46        2.11969  -0.00006  -0.00010  -0.00006  -0.00016   2.11952
   A47        2.12253  -0.00026  -0.00001  -0.00156  -0.00157   2.12096
   A48        2.04097   0.00032   0.00011   0.00162   0.00173   2.04271
   A49        2.11255   0.00026   0.00011   0.00077   0.00088   2.11343
   A50        2.09432  -0.00045  -0.00023  -0.00116  -0.00140   2.09292
   A51        2.07632   0.00019   0.00012   0.00039   0.00051   2.07683
   A52        2.07035  -0.00043  -0.00022  -0.00126  -0.00148   2.06888
   A53        2.12567   0.00055   0.00024   0.00155   0.00179   2.12746
   A54        2.08716  -0.00012  -0.00002  -0.00029  -0.00031   2.08685
   A55        2.11971  -0.00008  -0.00010  -0.00012  -0.00022   2.11949
   A56        2.12255  -0.00026  -0.00002  -0.00154  -0.00156   2.12099
   A57        2.04093   0.00033   0.00012   0.00165   0.00177   2.04270
   A58        2.07634   0.00017   0.00013   0.00030   0.00043   2.07678
   A59        2.11264   0.00023   0.00010   0.00067   0.00078   2.11342
   A60        2.09420  -0.00040  -0.00023  -0.00098  -0.00121   2.09299
   A61        2.04334  -0.00069  -0.00026  -0.00189  -0.00216   2.04119
   A62        2.04639  -0.00082  -0.00043  -0.00236  -0.00280   2.04359
   A63        2.07034  -0.00042  -0.00021  -0.00123  -0.00145   2.06889
   A64        2.12569   0.00053   0.00025   0.00146   0.00170   2.12739
   A65        2.08716  -0.00011  -0.00003  -0.00022  -0.00025   2.08690
   A66        2.11969  -0.00006  -0.00010  -0.00006  -0.00016   2.11953
   A67        2.12253  -0.00026  -0.00001  -0.00156  -0.00158   2.12096
   A68        2.04096   0.00033   0.00011   0.00163   0.00174   2.04270
   A69        2.07631   0.00019   0.00012   0.00040   0.00052   2.07683
   A70        2.11256   0.00026   0.00011   0.00077   0.00088   2.11344
   A71        2.09432  -0.00045  -0.00023  -0.00117  -0.00140   2.09292
   A72        2.08717  -0.00012  -0.00002  -0.00030  -0.00032   2.08685
   A73        2.07035  -0.00043  -0.00022  -0.00125  -0.00147   2.06887
   A74        2.12567   0.00055   0.00024   0.00155   0.00179   2.12746
   A75        2.11971  -0.00008  -0.00010  -0.00012  -0.00022   2.11949
   A76        2.12254  -0.00026  -0.00002  -0.00153  -0.00155   2.12099
   A77        2.04093   0.00033   0.00012   0.00165   0.00177   2.04270
   A78        2.11264   0.00023   0.00010   0.00067   0.00078   2.11342
   A79        2.09420  -0.00040  -0.00023  -0.00098  -0.00121   2.09299
   A80        2.07634   0.00017   0.00013   0.00030   0.00043   2.07678
   A81        2.04344  -0.00073  -0.00026  -0.00207  -0.00233   2.04111
   A82        2.04649  -0.00087  -0.00043  -0.00255  -0.00298   2.04352
   A83        2.11962  -0.00008  -0.00010  -0.00012  -0.00022   2.11940
   A84        2.04087   0.00034   0.00011   0.00172   0.00183   2.04269
   A85        2.12270  -0.00026  -0.00001  -0.00159  -0.00160   2.12110
   A86        2.07657   0.00020   0.00012   0.00041   0.00053   2.07710
   A87        2.11256   0.00024   0.00012   0.00069   0.00080   2.11336
   A88        2.09406  -0.00043  -0.00024  -0.00109  -0.00134   2.09273
   A89        2.12562   0.00056   0.00024   0.00158   0.00182   2.12744
   A90        2.07049  -0.00042  -0.00021  -0.00123  -0.00144   2.06906
   A91        2.08707  -0.00014  -0.00004  -0.00035  -0.00038   2.08669
   A92        2.09417  -0.00043  -0.00023  -0.00111  -0.00134   2.09284
   A93        2.11261   0.00022   0.00011   0.00062   0.00073   2.11334
   A94        2.07641   0.00021   0.00012   0.00049   0.00060   2.07701
   A95        2.08713  -0.00010  -0.00003  -0.00022  -0.00025   2.08688
   A96        2.12563   0.00053   0.00025   0.00144   0.00170   2.12733
   A97        2.07043  -0.00043  -0.00023  -0.00123  -0.00145   2.06898
   A98        2.11971  -0.00009  -0.00010  -0.00019  -0.00029   2.11942
   A99        2.12239  -0.00023  -0.00002  -0.00140  -0.00143   2.12096
   A100       2.04109   0.00033   0.00012   0.00159   0.00172   2.04281
   A101       2.11968  -0.00008  -0.00010  -0.00012  -0.00022   2.11946
   A102       2.04108   0.00031   0.00013   0.00149   0.00162   2.04270
   A103       2.12243  -0.00023  -0.00003  -0.00137  -0.00141   2.12102
   A104       2.07638   0.00021   0.00013   0.00045   0.00058   2.07695
   A105       2.11261   0.00024   0.00010   0.00073   0.00082   2.11343
   A106       2.09420  -0.00045  -0.00022  -0.00118  -0.00140   2.09280
   A107       2.12571   0.00053   0.00024   0.00150   0.00174   2.12745
   A108       2.07040  -0.00039  -0.00022  -0.00109  -0.00131   2.06909
   A109       2.08708  -0.00015  -0.00002  -0.00041  -0.00043   2.08665
   A110       2.09408  -0.00045  -0.00024  -0.00115  -0.00138   2.09269
   A111       2.11259   0.00024   0.00010   0.00071   0.00082   2.11341
   A112       2.07652   0.00021   0.00013   0.00043   0.00057   2.07709
   A113       2.08700  -0.00011  -0.00002  -0.00026  -0.00028   2.08673
   A114       2.12567   0.00053   0.00023   0.00149   0.00173   2.12740
   A115       2.07051  -0.00042  -0.00021  -0.00124  -0.00145   2.06906
   A116       2.11959  -0.00008  -0.00011  -0.00011  -0.00022   2.11937
   A117       2.12269  -0.00024  -0.00001  -0.00144  -0.00145   2.12124
   A118       2.04090   0.00032   0.00012   0.00155   0.00167   2.04257
   A119       2.04645  -0.00082  -0.00043  -0.00237  -0.00280   2.04365
   A120       2.04345  -0.00072  -0.00027  -0.00199  -0.00225   2.04120
    D1       -0.00002   0.00000  -0.00000   0.00001   0.00001  -0.00001
    D2        3.14158   0.00000  -0.00000   0.00001   0.00001   3.14159
    D3        3.14157   0.00000  -0.00000   0.00001   0.00001   3.14158
    D4       -0.00002   0.00000  -0.00000   0.00001   0.00001  -0.00001
    D5        0.00003  -0.00000   0.00000  -0.00002  -0.00002   0.00001
    D6       -3.14159  -0.00000  -0.00000  -0.00000  -0.00000  -3.14159
    D7       -3.14157  -0.00000   0.00000  -0.00002  -0.00002  -3.14158
    D8        0.00000  -0.00000   0.00000  -0.00000  -0.00000   0.00000
    D9       -3.14158  -0.00000   0.00000  -0.00001  -0.00001  -3.14159
   D10        0.00001  -0.00000   0.00000  -0.00001  -0.00001   0.00001
   D11       -0.00002   0.00000  -0.00000   0.00001   0.00001  -0.00001
   D12        3.14156   0.00000  -0.00000   0.00002   0.00002   3.14158
   D13       -3.14158  -0.00000   0.00000  -0.00001  -0.00001  -3.14159
   D14        0.00000  -0.00000  -0.00000  -0.00000  -0.00000  -0.00000
   D15       -0.00001   0.00000  -0.00000   0.00000   0.00000  -0.00000
   D16       -3.14158  -0.00000   0.00000  -0.00001  -0.00001  -3.14158
   D17        3.14156   0.00000  -0.00000   0.00003   0.00003   3.14158
   D18       -0.00001   0.00000  -0.00000   0.00002   0.00001  -0.00000
   D19        0.00001  -0.00000  -0.00000   0.00000   0.00000   0.00001
   D20       -3.14155  -0.00000  -0.00000  -0.00002  -0.00002  -3.14157
   D21       -0.00001   0.00000  -0.00000   0.00001   0.00001  -0.00000
   D22        3.14158   0.00000  -0.00000   0.00001   0.00001   3.14159
   D23       -3.14159  -0.00000  -0.00000  -0.00000  -0.00000  -3.14159
   D24       -0.00000   0.00000  -0.00000   0.00000   0.00000  -0.00000
   D25        0.00003  -0.00000   0.00000  -0.00002  -0.00002   0.00001
   D26       -3.14156  -0.00000   0.00000  -0.00003  -0.00002  -3.14158
   D27       -3.14158  -0.00000   0.00000  -0.00001  -0.00001  -3.14159
   D28        0.00003  -0.00000   0.00000  -0.00002  -0.00002   0.00001
   D29        0.00001   0.00000   0.00000  -0.00000  -0.00000   0.00001
   D30       -3.14157  -0.00000  -0.00000  -0.00002  -0.00002  -3.14159
   D31       -3.14159  -0.00000   0.00000  -0.00001  -0.00001  -3.14159
   D32        0.00002  -0.00000   0.00000  -0.00002  -0.00002   0.00000
   D33       -0.00001   0.00000  -0.00000   0.00001   0.00001   0.00000
   D34        3.14158   0.00000  -0.00000   0.00001   0.00001   3.14159
   D35        3.14158   0.00000  -0.00000   0.00001   0.00001  -3.14159
   D36       -0.00002   0.00000  -0.00000   0.00002   0.00002   0.00000
   D37        0.00001   0.00000   0.00000  -0.00001  -0.00000   0.00001
   D38        3.14158   0.00000   0.00000   0.00002   0.00002  -3.14159
   D39       -3.14156  -0.00000  -0.00000  -0.00002  -0.00002  -3.14158
   D40        0.00001  -0.00000  -0.00000  -0.00000  -0.00000   0.00001
   D41       -0.00000  -0.00000  -0.00000  -0.00000  -0.00001  -0.00001
   D42       -3.14159  -0.00000  -0.00000  -0.00001  -0.00001   3.14159
   D43        3.14157   0.00000   0.00000   0.00001   0.00001   3.14158
   D44       -0.00002   0.00000   0.00000   0.00001   0.00001  -0.00001
   D45        0.00000  -0.00000   0.00000  -0.00000  -0.00000   0.00000
   D46       -3.14156  -0.00000  -0.00000  -0.00002  -0.00002  -3.14158
   D47        0.00000  -0.00000  -0.00000  -0.00001  -0.00001  -0.00001
   D48        3.14158   0.00000   0.00000   0.00001   0.00001   3.14158
   D49       -3.14157  -0.00000   0.00000  -0.00002  -0.00002  -3.14159
   D50        0.00000   0.00000   0.00000  -0.00001  -0.00000  -0.00000
   D51       -0.00001   0.00000  -0.00000   0.00001   0.00001  -0.00000
   D52       -3.14158  -0.00000   0.00000  -0.00001  -0.00001  -3.14159
   D53        3.14157   0.00000  -0.00000   0.00002   0.00002   3.14159
   D54       -0.00000  -0.00000  -0.00000   0.00000  -0.00000  -0.00000
   D55        0.00001  -0.00000  -0.00000  -0.00000  -0.00001   0.00001
   D56       -3.14157  -0.00000   0.00000  -0.00002  -0.00001  -3.14158
   D57        3.14157   0.00000  -0.00000   0.00002   0.00002   3.14159
   D58       -0.00001   0.00000  -0.00000   0.00001   0.00001  -0.00000
   D59       -0.00001   0.00000   0.00000  -0.00000   0.00000  -0.00001
   D60        3.14155   0.00000   0.00000   0.00002   0.00002   3.14157
   D61       -0.00001   0.00000   0.00000   0.00000   0.00000  -0.00000
   D62        3.14157   0.00000  -0.00000   0.00001   0.00001   3.14159
   D63       -0.00002   0.00000  -0.00000   0.00001   0.00001  -0.00001
   D64        3.14155   0.00000  -0.00000   0.00003   0.00003   3.14157
   D65        3.14156   0.00000  -0.00000   0.00003   0.00003   3.14158
   D66       -0.00002   0.00000  -0.00000   0.00001   0.00001  -0.00001
   D67       -3.14155  -0.00000   0.00000  -0.00003  -0.00002  -3.14158
   D68        0.00002  -0.00000   0.00000  -0.00002  -0.00001   0.00001
   D69        0.00000  -0.00000   0.00000  -0.00000  -0.00000   0.00000
   D70       -3.14159   0.00000   0.00000   0.00000   0.00000  -3.14159
   D71       -0.00001   0.00000  -0.00000   0.00001   0.00001  -0.00000
   D72        3.14159  -0.00000  -0.00000  -0.00000  -0.00001   3.14159
   D73       -3.14156  -0.00000   0.00000  -0.00003  -0.00003  -3.14159
   D74        0.00001  -0.00000   0.00000  -0.00001  -0.00001   0.00000
   D75        0.00002  -0.00000   0.00000  -0.00002  -0.00002   0.00000
   D76        3.14159  -0.00000  -0.00000   0.00000  -0.00000   3.14159
   D77       -0.00005   0.00000  -0.00000   0.00004   0.00004  -0.00001
   D78        3.14155   0.00000  -0.00000   0.00004   0.00003   3.14158
   D79        3.14156   0.00000  -0.00000   0.00003   0.00003   3.14159
   D80       -0.00003   0.00000  -0.00000   0.00002   0.00002  -0.00001
   D81       -3.14155  -0.00000   0.00000  -0.00003  -0.00003  -3.14158
   D82        0.00003  -0.00000   0.00000  -0.00002  -0.00002   0.00001
   D83        0.00001  -0.00000   0.00000  -0.00001  -0.00001  -0.00000
   D84       -3.14158  -0.00000   0.00000  -0.00001  -0.00001   3.14159
   D85       -3.14158  -0.00000   0.00000  -0.00001  -0.00001  -3.14159
   D86        0.00001  -0.00000   0.00000  -0.00001  -0.00001  -0.00000
   D87        0.00004  -0.00000   0.00000  -0.00003  -0.00003   0.00001
   D88       -3.14156  -0.00000   0.00000  -0.00003  -0.00002  -3.14158
   D89       -3.14156  -0.00000   0.00000  -0.00003  -0.00003  -3.14159
   D90        0.00003  -0.00000   0.00000  -0.00003  -0.00002   0.00001
   D91        0.00001  -0.00000   0.00000  -0.00001  -0.00001   0.00000
   D92       -3.14156  -0.00000   0.00000  -0.00003  -0.00002  -3.14159
   D93       -3.14158  -0.00000  -0.00000  -0.00001  -0.00001  -3.14159
   D94        0.00003  -0.00000   0.00000  -0.00003  -0.00003   0.00000
   D95        3.14155   0.00000  -0.00000   0.00004   0.00003   3.14158
   D96       -0.00004   0.00000  -0.00001   0.00004   0.00004  -0.00001
   D97       -0.00004   0.00000  -0.00000   0.00004   0.00004  -0.00001
   D98        3.14155   0.00000  -0.00000   0.00005   0.00004   3.14159
   D99        0.00000  -0.00000   0.00000  -0.00000  -0.00000  -0.00000
   D100      -3.14159  -0.00000  -0.00000  -0.00001  -0.00001   3.14159
   D101      -3.14157  -0.00000   0.00000  -0.00002  -0.00002  -3.14158
   D102       0.00002  -0.00000   0.00000  -0.00001  -0.00001   0.00001
   D103      -0.00001   0.00000  -0.00000   0.00000   0.00000  -0.00001
   D104       3.14156   0.00000  -0.00000   0.00002   0.00002   3.14157
   D105       3.14159  -0.00000  -0.00000  -0.00000  -0.00000   3.14159
   D106       0.00002  -0.00000   0.00000  -0.00002  -0.00002   0.00000
   D107       0.00001  -0.00000   0.00000  -0.00001  -0.00001  -0.00000
   D108      -3.14156  -0.00000   0.00000  -0.00003  -0.00003  -3.14159
   D109      -0.00001   0.00000  -0.00000   0.00001   0.00001  -0.00000
   D110       3.14158   0.00000   0.00000   0.00002   0.00002   3.14159
   D111       3.14157   0.00000  -0.00000   0.00002   0.00002   3.14158
   D112      -0.00003   0.00000  -0.00000   0.00003   0.00003  -0.00001
   D113       0.00001  -0.00000   0.00000  -0.00001  -0.00001  -0.00000
   D114      -3.14159  -0.00000   0.00000  -0.00001  -0.00001   3.14159
   D115      -3.14158  -0.00000   0.00000  -0.00001  -0.00001  -3.14159
   D116       0.00001  -0.00000   0.00000  -0.00002  -0.00002  -0.00000
   D117      -3.14158  -0.00000   0.00000  -0.00001  -0.00001  -3.14158
   D118       0.00002  -0.00000   0.00000  -0.00002  -0.00002   0.00001
   D119       0.00001   0.00000   0.00000  -0.00000  -0.00000   0.00001
   D120      -3.14158  -0.00000   0.00000  -0.00001  -0.00001  -3.14159
   D121       0.00002  -0.00000   0.00000  -0.00001  -0.00001   0.00001
   D122       3.14159  -0.00000  -0.00000   0.00001   0.00000  -3.14159
   D123      -3.14157  -0.00000   0.00000  -0.00002  -0.00002  -3.14158
   D124       0.00000   0.00000   0.00000   0.00000   0.00000   0.00000
   D125      -0.00003   0.00000  -0.00000   0.00002   0.00002  -0.00001
   D126       3.14156   0.00000  -0.00000   0.00003   0.00003   3.14159
   D127       3.14156   0.00000  -0.00000   0.00003   0.00003   3.14158
   D128      -0.00003   0.00000  -0.00000   0.00003   0.00003  -0.00001
   D129       0.00001  -0.00000   0.00000  -0.00001  -0.00001   0.00000
   D130      -3.14158  -0.00000   0.00000  -0.00001  -0.00001  -3.14159
   D131       3.14156   0.00000  -0.00000   0.00003   0.00002   3.14158
   D132      -0.00001   0.00000  -0.00000   0.00001   0.00001  -0.00001
   D133       3.14157   0.00000  -0.00000   0.00002   0.00002   3.14159
   D134      -0.00001   0.00000  -0.00000   0.00001   0.00001  -0.00000
   D135       0.00001  -0.00000   0.00000  -0.00001  -0.00001   0.00001
   D136      -3.14156  -0.00000   0.00000  -0.00002  -0.00002  -3.14158
   D137      -3.14155  -0.00000   0.00000  -0.00003  -0.00003  -3.14158
   D138       0.00003  -0.00000   0.00000  -0.00002  -0.00002   0.00001
   D139       0.00003  -0.00000   0.00000  -0.00003  -0.00003   0.00001
   D140      -3.14157  -0.00000   0.00000  -0.00002  -0.00001  -3.14159
   D141      -0.00001   0.00000  -0.00000   0.00001   0.00001   0.00000
   D142       3.14157   0.00000  -0.00000   0.00002   0.00002   3.14159
   D143       3.14159   0.00000  -0.00000   0.00001   0.00001  -3.14159
   D144      -0.00001   0.00000  -0.00000   0.00001   0.00001  -0.00000
   D145       0.00004  -0.00000   0.00000  -0.00003  -0.00003   0.00001
   D146      -3.14158  -0.00000   0.00000  -0.00001  -0.00000  -3.14159
   D147      -3.14155  -0.00000   0.00000  -0.00003  -0.00003  -3.14158
   D148       0.00002  -0.00000   0.00000  -0.00001  -0.00001   0.00001
   D149      -0.00002   0.00000  -0.00000   0.00001   0.00001  -0.00001
   D150       3.14158  -0.00000  -0.00000   0.00001   0.00001   3.14158
   D151       3.14156   0.00000   0.00000   0.00002   0.00002   3.14158
   D152      -0.00002   0.00000   0.00000   0.00001   0.00001  -0.00001
   D153       0.00001  -0.00000  -0.00000  -0.00000  -0.00000   0.00001
   D154      -3.14158  -0.00000  -0.00000  -0.00001  -0.00001  -3.14158
   D155      -0.00000   0.00000   0.00000   0.00000   0.00000  -0.00000
   D156      -3.14158  -0.00000   0.00000  -0.00001  -0.00001  -3.14159
   D157       3.14157   0.00000  -0.00000   0.00002   0.00002   3.14158
   D158      -0.00001   0.00000  -0.00000   0.00001   0.00001  -0.00001
   D159       3.14155   0.00000  -0.00000   0.00003   0.00003   3.14158
   D160      -0.00001   0.00000  -0.00000   0.00001   0.00001  -0.00000
   D161      -0.00002   0.00000  -0.00000   0.00002   0.00002  -0.00000
   D162      -3.14158  -0.00000  -0.00000  -0.00000  -0.00000  -3.14159
   D163       3.14158   0.00000   0.00000   0.00000   0.00000   3.14158
   D164      -0.00000  -0.00000   0.00000  -0.00000  -0.00000  -0.00001
   D165      -0.00001   0.00000   0.00000   0.00000   0.00000  -0.00001
   D166      -3.14159  -0.00000   0.00000  -0.00001  -0.00001   3.14159
   D167      -0.00002   0.00000  -0.00000   0.00002   0.00002  -0.00000
   D168      -3.14158  -0.00000  -0.00000  -0.00000  -0.00000  -3.14158
   D169       3.14157   0.00000  -0.00000   0.00002   0.00002   3.14159
   D170       0.00001   0.00000  -0.00000   0.00000   0.00000   0.00001
   D171      -0.00001   0.00000   0.00000   0.00000   0.00000  -0.00001
   D172       3.14157   0.00000   0.00000   0.00001   0.00002   3.14158
   D173      -3.14157  -0.00000   0.00000  -0.00002  -0.00002  -3.14159
   D174       0.00001  -0.00000   0.00000  -0.00001  -0.00001   0.00000
   D175      -3.14156  -0.00000   0.00000  -0.00002  -0.00002  -3.14158
   D176       0.00001  -0.00000   0.00000  -0.00001  -0.00000   0.00000
   D177      -0.00000   0.00000   0.00000   0.00000   0.00000   0.00000
   D178       3.14156   0.00000   0.00000   0.00002   0.00002   3.14158
   D179       0.00001  -0.00000  -0.00000  -0.00000  -0.00000   0.00001
   D180      -3.14154  -0.00000  -0.00000  -0.00003  -0.00003  -3.14157
   D181       0.00000  -0.00000  -0.00000  -0.00000  -0.00000  -0.00000
   D182       3.14158   0.00000  -0.00000   0.00001   0.00001   3.14159
   D183      -3.14158  -0.00000   0.00000  -0.00001  -0.00001  -3.14159
   D184       0.00000  -0.00000  -0.00000  -0.00000  -0.00000   0.00000
   D185       0.00001  -0.00000  -0.00000  -0.00000  -0.00000   0.00001
   D186      -3.14157  -0.00000  -0.00000  -0.00001  -0.00001  -3.14158
   D187      -3.14159   0.00000  -0.00000   0.00001   0.00001  -3.14159
   D188       0.00001  -0.00000  -0.00000  -0.00000  -0.00001   0.00001
   D189      -0.00002   0.00000  -0.00000   0.00001   0.00001  -0.00001
   D190       3.14156   0.00000   0.00000   0.00002   0.00002   3.14158
   D191      -0.00003   0.00000   0.00000   0.00001   0.00001  -0.00001
   D192       3.14154   0.00000  -0.00000   0.00003   0.00003   3.14157
         Item               Value     Threshold  Converged?
 Maximum Force            0.002096     0.000450     NO 
 RMS     Force            0.000494     0.000300     NO 
 Maximum Displacement     0.012105     0.001800     NO 
 RMS     Displacement     0.003609     0.001200     NO 
 Predicted change in Energy=-1.158026D-04
 GradGradGradGradGradGradGradGradGradGradGradGradGradGradGradGradGradGrad

 Stoichiometry    C36H12N12
 Framework group  C1[X(C36H12N12)]
 Deg. of freedom   174
 Full point group                 C1      NOp   1
 Largest Abelian subgroup         C1      NOp   1
 Largest concise Abelian subgroup C1      NOp   1
                         Standard orientation:                         
 ---------------------------------------------------------------------
 Center     Atomic      Atomic             Coordinates (Angstroms)
 Number     Number       Type             X           Y           Z
 ---------------------------------------------------------------------
      1          6           0        2.920331   -4.044141    0.000002
      2          6           0        0.468654   -3.577142   -0.000031
      3          6           0        1.325138   -5.902121    0.000016
      4          6           0       -4.448703   -4.098823    0.000021
      5          6           0       -2.042123   -4.551051   -0.000003
      6          6           0       -2.863598   -2.194283   -0.000024
      7          6           0       -4.211488   -2.673210    0.000004
      8          6           0       -1.761349   -3.148428   -0.000028
      9          6           0       -3.418970   -4.990170    0.000017
     10          6           0        2.611967   -5.456103    0.000019
     11          6           0        0.209223   -4.983865   -0.000003
     12          6           0        1.846094   -3.099617   -0.000029
     13          7           0       -1.049200   -5.457917    0.000007
     14          7           0       -0.515214   -2.680754   -0.000049
     15          7           0       -2.579320   -0.893995   -0.000040
     16          7           0        2.064167   -1.786566   -0.000045
     17          7           0       -5.251381   -1.820559    0.000018
     18          7           0        4.202189   -3.637730    0.000018
     19          6           0       -3.332418    1.382803   -0.000022
     20          6           0       -5.774075    1.803296    0.000025
     21          6           0       -4.962550   -0.507177    0.000007
     22          6           0       -3.607579   -0.048856   -0.000020
     23          6           0       -6.031161    0.465807    0.000026
     24          6           0       -4.420910    2.310823    0.000006
     25          7           0       -4.202188    3.637731    0.000019
     26          7           0       -2.064168    1.786566   -0.000046
     27          6           0        3.332417   -1.382804   -0.000021
     28          6           0        5.774075   -1.803295    0.000034
     29          6           0        4.962551    0.507179    0.000016
     30          6           0        3.607578    0.048856   -0.000018
     31          6           0        6.031161   -0.465807    0.000038
     32          6           0        4.420910   -2.310823    0.000009
     33          7           0        5.251381    1.820557    0.000030
     34          7           0        2.579320    0.893994   -0.000039
     35          6           0        4.448703    4.098823    0.000033
     36          6           0        2.042124    4.551049    0.000006
     37          6           0        2.863599    2.194284   -0.000021
     38          6           0       -2.920332    4.044141    0.000007
     39          6           0       -0.468654    3.577141   -0.000028
     40          6           0       -1.325138    5.902121    0.000029
     41          6           0       -2.611967    5.456104    0.000030
     42          6           0       -0.209221    4.983866    0.000006
     43          6           0       -1.846094    3.099616   -0.000027
     44          6           0        4.211486    2.673211    0.000014
     45          6           0        1.761349    3.148429   -0.000025
     46          6           0        3.418969    4.990170    0.000028
     47          7           0        0.515213    2.680754   -0.000050
     48          7           0        1.049199    5.457917    0.000018
     49          1           0       -7.046686    0.083214    0.000044
     50          1           0       -6.575419    2.535081    0.000041
     51          1           0       -5.483170   -4.426784    0.000041
     52          1           0       -3.595122   -6.060981    0.000032
     53          1           0        1.092002   -6.961982    0.000031
     54          1           0        3.451056   -6.144305    0.000036
     55          1           0        6.575418   -2.535081    0.000052
     56          1           0        7.046687   -0.083215    0.000059
     57          1           0        5.483170    4.426783    0.000052
     58          1           0        3.595120    6.060981    0.000043
     59          1           0       -1.092002    6.961983    0.000049
     60          1           0       -3.451056    6.144305    0.000050
 ---------------------------------------------------------------------
 Rotational constants (GHZ):      0.0694743      0.0694731      0.0347369
 Standard basis: 6-31G(d,p) (6D, 7F)
 There are   780 symmetry adapted cartesian basis functions of A   symmetry.
 There are   780 symmetry adapted basis functions of A   symmetry.
   780 basis functions,  1428 primitive gaussians,   780 cartesian basis functions
   156 alpha electrons      156 beta electrons
       nuclear repulsion energy      5333.0288002017 Hartrees.
 NAtoms=   60 NActive=   60 NUniq=   60 SFac= 1.00D+00 NAtFMM=   60 NAOKFM=T Big=T
 Integral buffers will be    131072 words long.
 Raffenetti 2 integral format.
 Two-electron integral symmetry is turned on.
 One-electron integrals computed using PRISM.
 NBasis=   780 RedAO= T EigKep=  2.21D-04  NBF=   780
 NBsUse=   780 1.00D-06 EigRej= -1.00D+00 NBFU=   780
 Initial guess from the checkpoint file:  "/scratch/tmp/3419170/Gau-179605.chk"
 B after Tr=    -0.000000   -0.000000    0.000000
         Rot=    0.999976   -0.000000    0.000000    0.006858 Ang=  -0.79 deg.
 Requested convergence on RMS density matrix=1.00D-08 within  64 cycles.
 Requested convergence on MAX density matrix=1.00D-06.
 Requested convergence on             energy=1.00D-06.
 No special actions if energy rises.
 SCF Done:  E(RB3LYP) =  -2036.17355566     A.U. after    9 cycles
            NFock=  9  Conv=0.47D-08     -V/T= 2.0093
 QCSCF skips out because SCF is already converged.
 Calling FoFJK, ICntrl=      2127 FMM=T ISym2X=0 I1Cent= 0 IOpClX= 0 NMat=1 NMatS=1 NMatT=0.
 ***** Axes restored to original set *****
 -------------------------------------------------------------------
 Center     Atomic                   Forces (Hartrees/Bohr)
 Number     Number              X              Y              Z
 -------------------------------------------------------------------
      1        6          -0.000274929    0.000305538   -0.000000072
      2        6          -0.000089592   -0.000345396   -0.000000305
      3        6           0.000511624    0.000158936   -0.000000061
      4        6           0.000424857   -0.000373791   -0.000000005
      5        6           0.000146470    0.000423287    0.000000226
      6        6          -0.000292143   -0.000036489   -0.000000237
      7        6          -0.000213494    0.000336955    0.000000067
      8        6           0.000328407   -0.000030818   -0.000000393
      9        6          -0.000344585   -0.000446130    0.000000023
     10        6           0.000194750   -0.000488522    0.000000005
     11        6          -0.000422002    0.000028709    0.000000045
     12        6           0.000192786    0.000303082   -0.000000134
     13        7           0.000101485   -0.000174236   -0.000000197
     14        7          -0.000151507    0.000267579    0.000000689
     15        7           0.000107494    0.000234674    0.000000386
     16        7          -0.000296657   -0.000056913    0.000000572
     17        7          -0.000066442   -0.000159867   -0.000000088
     18        7           0.000192166    0.000049165   -0.000000048
     19        6          -0.000222791    0.000207770   -0.000000397
     20        6          -0.000112442   -0.000577942    0.000000090
     21        6           0.000403639    0.000043349    0.000000178
     22        6           0.000155286   -0.000252635   -0.000000474
     23        6          -0.000539458    0.000077211   -0.000000062
     24        6           0.000240078    0.000373082    0.000000088
     25        7          -0.000192144   -0.000047954   -0.000000068
     26        7           0.000296695    0.000057549    0.000000581
     27        6           0.000222308   -0.000208366   -0.000000311
     28        6           0.000112298    0.000579044   -0.000000065
     29        6          -0.000405473   -0.000040425   -0.000000043
     30        6          -0.000155604    0.000251838   -0.000000186
     31        6           0.000540139   -0.000077997   -0.000000002
     32        6          -0.000239729   -0.000374025    0.000000072
     33        7           0.000069811    0.000158348   -0.000000015
     34        7          -0.000106065   -0.000236290    0.000000261
     35        6          -0.000424290    0.000373859   -0.000000104
     36        6          -0.000143666   -0.000423635   -0.000000006
     37        6           0.000293118    0.000039718   -0.000000067
     38        6           0.000274553   -0.000306632   -0.000000097
     39        6           0.000089855    0.000344691   -0.000000154
     40        6          -0.000512142   -0.000159602    0.000000027
     41        6          -0.000194843    0.000489431   -0.000000150
     42        6           0.000423095   -0.000026264   -0.000000171
     43        6          -0.000192319   -0.000303229   -0.000000010
     44        6           0.000209916   -0.000338681   -0.000000147
     45        6          -0.000329464    0.000031993   -0.000000269
     46        6           0.000343995    0.000446018    0.000000054
     47        7           0.000150820   -0.000268407    0.000000690
     48        7          -0.000103881    0.000172596   -0.000000040
     49        1           0.000096211   -0.000084919   -0.000000021
     50        1          -0.000040985    0.000111024    0.000000035
     51        1          -0.000116291    0.000020035   -0.000000069
     52        1           0.000121635    0.000038004    0.000000039
     53        1          -0.000067719   -0.000084893    0.000000056
     54        1           0.000028830    0.000115947    0.000000014
     55        1           0.000040944   -0.000111178    0.000000061
     56        1          -0.000096151    0.000084936   -0.000000003
     57        1           0.000116275   -0.000020018    0.000000047
     58        1          -0.000121651   -0.000038049    0.000000078
     59        1           0.000067679    0.000084947    0.000000042
     60        1          -0.000028761   -0.000116012    0.000000047
 -------------------------------------------------------------------
 Cartesian Forces:  Max     0.000579044 RMS     0.000210801

 GradGradGradGradGradGradGradGradGradGradGradGradGradGradGradGradGradGrad
 Berny optimization.
 Using GEDIIS/GDIIS optimizer.
 FormGI is forming the generalized inverse of G from B-inverse, IUseBI=4.
 Internal  Forces:  Max     0.000453896 RMS     0.000096912
 Search for a local minimum.
 Step number   3 out of a maximum of  360
 All quantities printed in internal units (Hartrees-Bohrs-Radians)
 Mixed Optimization -- En-DIIS/RFO-DIIS
 Swapping is turned off.
 Update second derivatives using D2CorX and points    1    2    3
 DE= -1.72D-04 DEPred=-1.16D-04 R= 1.48D+00
 TightC=F SS=  1.41D+00  RLast= 2.55D-02 DXNew= 5.0454D-01 7.6421D-02
 Trust test= 1.48D+00 RLast= 2.55D-02 DXMaxT set to 3.00D-01
 ITU=  1  1  0
     Eigenvalues ---    0.01578   0.01582   0.01583   0.01619   0.01619
     Eigenvalues ---    0.01621   0.01639   0.01639   0.01646   0.01745
     Eigenvalues ---    0.01764   0.01766   0.01766   0.01776   0.01776
     Eigenvalues ---    0.01800   0.01800   0.01818   0.01825   0.01825
     Eigenvalues ---    0.01833   0.01839   0.01842   0.01842   0.01908
     Eigenvalues ---    0.01909   0.01935   0.01954   0.01954   0.02013
     Eigenvalues ---    0.02023   0.02024   0.02030   0.02055   0.02055
     Eigenvalues ---    0.02056   0.02062   0.02062   0.02066   0.02074
     Eigenvalues ---    0.02115   0.02115   0.02154   0.02154   0.02183
     Eigenvalues ---    0.02292   0.02296   0.02297   0.02320   0.02320
     Eigenvalues ---    0.02321   0.02392   0.02392   0.02591   0.02592
     Eigenvalues ---    0.02592   0.02593   0.15228   0.16000   0.16000
     Eigenvalues ---    0.16000   0.16000   0.16000   0.16000   0.16000
     Eigenvalues ---    0.16000   0.16000   0.16000   0.16000   0.22498
     Eigenvalues ---    0.22508   0.22508   0.22530   0.22530   0.22533
     Eigenvalues ---    0.24498   0.24502   0.24505   0.24615   0.24615
     Eigenvalues ---    0.24748   0.24989   0.25000   0.25000   0.25000
     Eigenvalues ---    0.25000   0.25000   0.25000   0.25000   0.25000
     Eigenvalues ---    0.25000   0.25000   0.25000   0.25000   0.25000
     Eigenvalues ---    0.25000   0.25000   0.25000   0.25000   0.25000
     Eigenvalues ---    0.25000   0.27548   0.30522   0.31727   0.31731
     Eigenvalues ---    0.33718   0.35174   0.35446   0.35447   0.35447
     Eigenvalues ---    0.35447   0.35448   0.35448   0.35449   0.35449
     Eigenvalues ---    0.35450   0.35451   0.35452   0.35467   0.35568
     Eigenvalues ---    0.35571   0.35585   0.35588   0.35653   0.36436
     Eigenvalues ---    0.36442   0.36761   0.38138   0.38208   0.38212
     Eigenvalues ---    0.38265   0.38266   0.38957   0.38962   0.38997
     Eigenvalues ---    0.39015   0.39021   0.39061   0.41279   0.41488
     Eigenvalues ---    0.41498   0.41620   0.41626   0.41964   0.46394
     Eigenvalues ---    0.48186   0.48189   0.52773   0.52782   0.52805
     Eigenvalues ---    0.53063   0.53071   0.53084   0.54053   0.54057
     Eigenvalues ---    0.54062   0.55919   0.55968   0.55973   0.56063
     Eigenvalues ---    0.56068   0.56116   0.58099   0.58104   0.59346
     Eigenvalues ---    0.59347   0.59347   0.59628   0.59636   0.59639
     Eigenvalues ---    0.59640   0.59643   0.59683   0.64931
 En-DIIS/RFO-DIIS IScMMF=        0 using points:     3    2
 RFO step:  Lambda=-6.82434386D-06.
 DidBck=F Rises=F RFO-DIIS coefs:    1.10404   -0.10404
 Iteration  1 RMS(Cart)=  0.00042588 RMS(Int)=  0.00000016
 Iteration  2 RMS(Cart)=  0.00000021 RMS(Int)=  0.00000000
 Variable       Old X    -DE/DX   Delta X   Delta X   Delta X     New X
                                 (Linear)    (Quad)   (Total)
    R1        2.73111  -0.00043  -0.00038  -0.00104  -0.00143   2.72969
    R2        2.70311  -0.00006   0.00026  -0.00014   0.00012   2.70323
    R3        2.54119  -0.00007  -0.00004  -0.00002  -0.00006   2.54113
    R4        2.70315  -0.00005   0.00026  -0.00013   0.00013   2.70328
    R5        2.75497  -0.00026  -0.00053  -0.00045  -0.00098   2.75399
    R6        2.51519  -0.00005  -0.00010   0.00003  -0.00006   2.51512
    R7        2.57368   0.00003   0.00009   0.00013   0.00023   2.57391
    R8        2.73094  -0.00042  -0.00040  -0.00100  -0.00139   2.72955
    R9        2.05073  -0.00004  -0.00000  -0.00010  -0.00010   2.05063
   R10        2.73106  -0.00043  -0.00039  -0.00102  -0.00141   2.72965
   R11        2.57367   0.00006   0.00011   0.00018   0.00028   2.57396
   R12        2.05075  -0.00004   0.00000  -0.00011  -0.00010   2.05064
   R13        2.70316  -0.00006   0.00026  -0.00016   0.00009   2.70325
   R14        2.73099  -0.00045  -0.00041  -0.00107  -0.00148   2.72951
   R15        2.54117  -0.00003  -0.00003   0.00005   0.00001   2.54119
   R16        2.70315  -0.00009   0.00025  -0.00023   0.00002   2.70317
   R17        2.75495  -0.00024  -0.00051  -0.00038  -0.00089   2.75406
   R18        2.51523  -0.00006  -0.00009   0.00003  -0.00007   2.51516
   R19        2.54124  -0.00003  -0.00004   0.00005   0.00001   2.54125
   R20        2.51523  -0.00008  -0.00011  -0.00001  -0.00012   2.51511
   R21        2.05074  -0.00004  -0.00000  -0.00011  -0.00011   2.05062
   R22        2.05076  -0.00004   0.00000  -0.00011  -0.00011   2.05065
   R23        2.54121  -0.00006  -0.00005   0.00000  -0.00004   2.54117
   R24        2.51529  -0.00006  -0.00009   0.00002  -0.00007   2.51522
   R25        2.51524  -0.00005  -0.00009   0.00004  -0.00006   2.51518
   R26        2.51517  -0.00009  -0.00010  -0.00003  -0.00014   2.51503
   R27        2.54124  -0.00004  -0.00004   0.00004   0.00000   2.54124
   R28        2.54133  -0.00005  -0.00003   0.00002  -0.00002   2.54131
   R29        2.75496  -0.00023  -0.00051  -0.00038  -0.00089   2.75407
   R30        2.70306  -0.00006   0.00026  -0.00015   0.00011   2.70317
   R31        2.51517  -0.00009  -0.00010  -0.00004  -0.00014   2.51503
   R32        2.57376   0.00006   0.00010   0.00018   0.00029   2.57404
   R33        2.73106  -0.00045  -0.00040  -0.00109  -0.00149   2.72956
   R34        2.05073  -0.00004  -0.00000  -0.00010  -0.00011   2.05063
   R35        2.70304  -0.00009   0.00024  -0.00023   0.00001   2.70305
   R36        2.73105  -0.00042  -0.00039  -0.00100  -0.00139   2.72966
   R37        2.05074  -0.00004  -0.00000  -0.00010  -0.00011   2.05063
   R38        2.54133  -0.00005  -0.00003   0.00002  -0.00002   2.54131
   R39        2.54119  -0.00007  -0.00004  -0.00002  -0.00006   2.54113
   R40        2.51529  -0.00006  -0.00009   0.00002  -0.00007   2.51522
   R41        2.75496  -0.00023  -0.00051  -0.00038  -0.00089   2.75408
   R42        2.70306  -0.00006   0.00026  -0.00015   0.00011   2.70317
   R43        2.57375   0.00006   0.00010   0.00018   0.00029   2.57404
   R44        2.73106  -0.00045  -0.00040  -0.00109  -0.00149   2.72956
   R45        2.05073  -0.00004  -0.00000  -0.00010  -0.00011   2.05063
   R46        2.70304  -0.00009   0.00024  -0.00023   0.00001   2.70305
   R47        2.73105  -0.00042  -0.00039  -0.00100  -0.00139   2.72966
   R48        2.54123  -0.00003  -0.00004   0.00005   0.00001   2.54124
   R49        2.51523  -0.00005  -0.00009   0.00004  -0.00006   2.51518
   R50        2.05074  -0.00004  -0.00000  -0.00010  -0.00011   2.05063
   R51        2.54124  -0.00004  -0.00004   0.00004   0.00001   2.54125
   R52        2.51523  -0.00006  -0.00009   0.00002  -0.00007   2.51516
   R53        2.73106  -0.00043  -0.00039  -0.00102  -0.00141   2.72965
   R54        2.57367   0.00006   0.00011   0.00018   0.00028   2.57396
   R55        2.05075  -0.00004   0.00000  -0.00011  -0.00010   2.05064
   R56        2.70315  -0.00006   0.00026  -0.00016   0.00010   2.70325
   R57        2.73098  -0.00045  -0.00041  -0.00107  -0.00148   2.72950
   R58        2.54118  -0.00004  -0.00003   0.00004   0.00001   2.54119
   R59        2.70315  -0.00009   0.00025  -0.00022   0.00002   2.70317
   R60        2.75495  -0.00024  -0.00051  -0.00038  -0.00089   2.75406
   R61        2.73111  -0.00043  -0.00038  -0.00104  -0.00143   2.72969
   R62        2.70311  -0.00006   0.00026  -0.00014   0.00012   2.70323
   R63        2.70315  -0.00005   0.00026  -0.00013   0.00013   2.70328
   R64        2.75497  -0.00026  -0.00053  -0.00045  -0.00098   2.75399
   R65        2.51518  -0.00005  -0.00010   0.00004  -0.00006   2.51512
   R66        2.57368   0.00003   0.00009   0.00013   0.00023   2.57391
   R67        2.73094  -0.00042  -0.00040  -0.00100  -0.00139   2.72955
   R68        2.05073  -0.00004  -0.00000  -0.00010  -0.00010   2.05063
   R69        2.05076  -0.00004   0.00000  -0.00011  -0.00011   2.05065
   R70        2.54120  -0.00006  -0.00005   0.00001  -0.00004   2.54117
   R71        2.51524  -0.00008  -0.00011  -0.00001  -0.00012   2.51512
   R72        2.05074  -0.00004  -0.00000  -0.00011  -0.00011   2.05062
    A1        2.07701  -0.00002   0.00006  -0.00016  -0.00010   2.07691
    A2        2.09284   0.00006  -0.00014   0.00036   0.00022   2.09306
    A3        2.11334  -0.00003   0.00008  -0.00020  -0.00012   2.11322
    A4        2.08688  -0.00000  -0.00003   0.00002  -0.00001   2.08687
    A5        2.12733  -0.00009   0.00018  -0.00054  -0.00036   2.12696
    A6        2.06898   0.00009  -0.00015   0.00052   0.00037   2.06935
    A7        2.11942   0.00003  -0.00003   0.00014   0.00011   2.11953
    A8        2.12096  -0.00013  -0.00015  -0.00075  -0.00090   2.12006
    A9        2.04281   0.00010   0.00018   0.00061   0.00079   2.04360
   A10        2.11940   0.00003  -0.00002   0.00017   0.00015   2.11955
   A11        2.04269   0.00011   0.00019   0.00066   0.00085   2.04354
   A12        2.12110  -0.00014  -0.00017  -0.00083  -0.00100   2.12010
   A13        2.07710  -0.00005   0.00006  -0.00026  -0.00020   2.07689
   A14        2.11336  -0.00004   0.00008  -0.00023  -0.00015   2.11321
   A15        2.09273   0.00009  -0.00014   0.00049   0.00035   2.09308
   A16        2.08669   0.00001  -0.00004   0.00008   0.00004   2.08673
   A17        2.12744  -0.00008   0.00019  -0.00050  -0.00031   2.12712
   A18        2.06906   0.00007  -0.00015   0.00043   0.00028   2.06933
   A19        2.07708  -0.00004   0.00006  -0.00025  -0.00019   2.07689
   A20        2.09270   0.00008  -0.00014   0.00046   0.00032   2.09301
   A21        2.11341  -0.00004   0.00009  -0.00021  -0.00012   2.11328
   A22        2.08673   0.00002  -0.00003   0.00010   0.00007   2.08680
   A23        2.12740  -0.00009   0.00018  -0.00056  -0.00038   2.12702
   A24        2.06906   0.00008  -0.00015   0.00046   0.00031   2.06936
   A25        2.11937   0.00003  -0.00002   0.00016   0.00013   2.11951
   A26        2.12124  -0.00013  -0.00015  -0.00079  -0.00094   2.12030
   A27        2.04257   0.00010   0.00017   0.00063   0.00080   2.04338
   A28        2.11946   0.00002  -0.00002   0.00010   0.00008   2.11953
   A29        2.04270   0.00010   0.00017   0.00060   0.00077   2.04347
   A30        2.12102  -0.00012  -0.00015  -0.00070  -0.00084   2.12018
   A31        2.07696  -0.00003   0.00006  -0.00017  -0.00011   2.07684
   A32        2.11343  -0.00005   0.00009  -0.00026  -0.00018   2.11325
   A33        2.09280   0.00007  -0.00015   0.00044   0.00029   2.09309
   A34        2.08665   0.00001  -0.00004   0.00007   0.00003   2.08668
   A35        2.12745  -0.00009   0.00018  -0.00056  -0.00037   2.12708
   A36        2.06909   0.00009  -0.00014   0.00048   0.00035   2.06943
   A37        2.04120   0.00010  -0.00023   0.00064   0.00040   2.04160
   A38        2.04365   0.00017  -0.00029   0.00096   0.00067   2.04432
   A39        2.04352   0.00014  -0.00031   0.00086   0.00055   2.04407
   A40        2.04359   0.00016  -0.00029   0.00092   0.00063   2.04422
   A41        2.04111   0.00009  -0.00024   0.00057   0.00033   2.04144
   A42        2.04119   0.00009  -0.00022   0.00058   0.00036   2.04155
   A43        2.08690   0.00002  -0.00003   0.00011   0.00009   2.08699
   A44        2.06889   0.00006  -0.00015   0.00040   0.00025   2.06914
   A45        2.12739  -0.00008   0.00018  -0.00051  -0.00034   2.12705
   A46        2.11952   0.00003  -0.00002   0.00013   0.00011   2.11964
   A47        2.12096  -0.00014  -0.00016  -0.00082  -0.00098   2.11998
   A48        2.04271   0.00011   0.00018   0.00069   0.00087   2.04357
   A49        2.11343  -0.00004   0.00009  -0.00023  -0.00014   2.11329
   A50        2.09292   0.00008  -0.00015   0.00045   0.00031   2.09323
   A51        2.07683  -0.00004   0.00005  -0.00022  -0.00017   2.07666
   A52        2.06888   0.00008  -0.00015   0.00045   0.00029   2.06917
   A53        2.12746  -0.00008   0.00019  -0.00048  -0.00030   2.12716
   A54        2.08685   0.00000  -0.00003   0.00004   0.00000   2.08685
   A55        2.11949   0.00003  -0.00002   0.00017   0.00015   2.11964
   A56        2.12099  -0.00014  -0.00016  -0.00080  -0.00096   2.12003
   A57        2.04270   0.00010   0.00018   0.00063   0.00081   2.04351
   A58        2.07678  -0.00004   0.00005  -0.00023  -0.00019   2.07659
   A59        2.11342  -0.00004   0.00008  -0.00023  -0.00015   2.11326
   A60        2.09299   0.00008  -0.00013   0.00047   0.00034   2.09333
   A61        2.04119   0.00009  -0.00022   0.00058   0.00036   2.04155
   A62        2.04359   0.00016  -0.00029   0.00092   0.00063   2.04422
   A63        2.06889   0.00006  -0.00015   0.00040   0.00025   2.06914
   A64        2.12739  -0.00008   0.00018  -0.00051  -0.00034   2.12705
   A65        2.08690   0.00002  -0.00003   0.00011   0.00009   2.08699
   A66        2.11953   0.00002  -0.00002   0.00013   0.00011   2.11964
   A67        2.12096  -0.00014  -0.00016  -0.00082  -0.00098   2.11998
   A68        2.04270   0.00011   0.00018   0.00069   0.00087   2.04357
   A69        2.07683  -0.00004   0.00005  -0.00022  -0.00016   2.07666
   A70        2.11344  -0.00004   0.00009  -0.00023  -0.00014   2.11329
   A71        2.09292   0.00008  -0.00015   0.00045   0.00031   2.09323
   A72        2.08685   0.00000  -0.00003   0.00004   0.00000   2.08685
   A73        2.06887   0.00008  -0.00015   0.00045   0.00029   2.06917
   A74        2.12746  -0.00008   0.00019  -0.00048  -0.00030   2.12716
   A75        2.11949   0.00003  -0.00002   0.00017   0.00015   2.11964
   A76        2.12099  -0.00013  -0.00016  -0.00080  -0.00096   2.12003
   A77        2.04270   0.00010   0.00018   0.00063   0.00081   2.04351
   A78        2.11342  -0.00004   0.00008  -0.00023  -0.00015   2.11326
   A79        2.09299   0.00008  -0.00013   0.00047   0.00034   2.09333
   A80        2.07678  -0.00004   0.00005  -0.00023  -0.00019   2.07659
   A81        2.04111   0.00009  -0.00024   0.00057   0.00033   2.04144
   A82        2.04352   0.00014  -0.00031   0.00086   0.00055   2.04407
   A83        2.11940   0.00003  -0.00002   0.00017   0.00015   2.11955
   A84        2.04269   0.00011   0.00019   0.00066   0.00085   2.04354
   A85        2.12110  -0.00014  -0.00017  -0.00083  -0.00100   2.12010
   A86        2.07710  -0.00005   0.00006  -0.00026  -0.00020   2.07689
   A87        2.11336  -0.00004   0.00008  -0.00023  -0.00015   2.11321
   A88        2.09273   0.00009  -0.00014   0.00049   0.00035   2.09308
   A89        2.12744  -0.00008   0.00019  -0.00051  -0.00032   2.12712
   A90        2.06906   0.00007  -0.00015   0.00043   0.00028   2.06933
   A91        2.08669   0.00001  -0.00004   0.00008   0.00004   2.08673
   A92        2.09284   0.00006  -0.00014   0.00036   0.00022   2.09306
   A93        2.11334  -0.00003   0.00008  -0.00020  -0.00012   2.11322
   A94        2.07701  -0.00002   0.00006  -0.00016  -0.00010   2.07691
   A95        2.08688  -0.00000  -0.00003   0.00002  -0.00001   2.08687
   A96        2.12733  -0.00009   0.00018  -0.00054  -0.00036   2.12696
   A97        2.06898   0.00009  -0.00015   0.00052   0.00037   2.06935
   A98        2.11942   0.00003  -0.00003   0.00014   0.00011   2.11953
   A99        2.12096  -0.00013  -0.00015  -0.00075  -0.00090   2.12006
   A100       2.04281   0.00010   0.00018   0.00061   0.00079   2.04360
   A101       2.11946   0.00002  -0.00002   0.00010   0.00008   2.11954
   A102       2.04270   0.00010   0.00017   0.00060   0.00077   2.04347
   A103       2.12102  -0.00012  -0.00015  -0.00070  -0.00084   2.12018
   A104       2.07695  -0.00003   0.00006  -0.00017  -0.00011   2.07684
   A105       2.11343  -0.00005   0.00009  -0.00027  -0.00018   2.11325
   A106       2.09280   0.00007  -0.00015   0.00044   0.00029   2.09309
   A107       2.12745  -0.00009   0.00018  -0.00056  -0.00038   2.12707
   A108       2.06909   0.00009  -0.00014   0.00048   0.00035   2.06943
   A109       2.08665   0.00001  -0.00004   0.00007   0.00003   2.08668
   A110       2.09269   0.00008  -0.00014   0.00046   0.00032   2.09301
   A111       2.11341  -0.00003   0.00009  -0.00021  -0.00012   2.11328
   A112       2.07709  -0.00004   0.00006  -0.00025  -0.00019   2.07689
   A113       2.08673   0.00002  -0.00003   0.00010   0.00007   2.08680
   A114       2.12740  -0.00009   0.00018  -0.00056  -0.00038   2.12702
   A115       2.06906   0.00008  -0.00015   0.00046   0.00030   2.06936
   A116       2.11937   0.00003  -0.00002   0.00016   0.00013   2.11951
   A117       2.12124  -0.00013  -0.00015  -0.00079  -0.00094   2.12030
   A118       2.04257   0.00010   0.00017   0.00063   0.00080   2.04338
   A119       2.04365   0.00017  -0.00029   0.00096   0.00067   2.04432
   A120       2.04120   0.00010  -0.00023   0.00064   0.00040   2.04160
    D1       -0.00001   0.00000   0.00000   0.00001   0.00001  -0.00000
    D2        3.14159   0.00000   0.00000   0.00000   0.00000   3.14159
    D3        3.14158   0.00000   0.00000   0.00001   0.00001   3.14159
    D4       -0.00001   0.00000   0.00000   0.00000   0.00001  -0.00000
    D5        0.00001  -0.00000  -0.00000  -0.00001  -0.00001   0.00000
    D6       -3.14159  -0.00000  -0.00000   0.00000   0.00000  -3.14159
    D7       -3.14158  -0.00000  -0.00000  -0.00001  -0.00001  -3.14159
    D8        0.00000  -0.00000  -0.00000  -0.00000  -0.00000   0.00000
    D9       -3.14159  -0.00000  -0.00000  -0.00000  -0.00001  -3.14159
   D10        0.00001  -0.00000  -0.00000  -0.00000  -0.00000   0.00000
   D11       -0.00001   0.00000   0.00000   0.00000   0.00001  -0.00000
   D12        3.14158   0.00000   0.00000   0.00001   0.00001   3.14159
   D13       -3.14159  -0.00000  -0.00000  -0.00000  -0.00000   3.14159
   D14       -0.00000   0.00000  -0.00000   0.00000   0.00000   0.00000
   D15       -0.00000   0.00000   0.00000   0.00000   0.00000   0.00000
   D16       -3.14158  -0.00000  -0.00000  -0.00000  -0.00001  -3.14159
   D17        3.14158   0.00000   0.00000   0.00001   0.00001   3.14159
   D18       -0.00000  -0.00000   0.00000  -0.00000   0.00000   0.00000
   D19        0.00001  -0.00000   0.00000  -0.00001  -0.00001   0.00000
   D20       -3.14157  -0.00000  -0.00000  -0.00001  -0.00001  -3.14159
   D21       -0.00000   0.00000   0.00000  -0.00000   0.00000   0.00000
   D22        3.14159   0.00000   0.00000   0.00000   0.00000   3.14159
   D23       -3.14159  -0.00000  -0.00000  -0.00000  -0.00000  -3.14159
   D24       -0.00000   0.00000   0.00000   0.00000   0.00000  -0.00000
   D25        0.00001  -0.00000  -0.00000  -0.00000  -0.00001   0.00000
   D26       -3.14158  -0.00000  -0.00000  -0.00001  -0.00001  -3.14159
   D27       -3.14159  -0.00000  -0.00000  -0.00000  -0.00000  -3.14159
   D28        0.00001  -0.00000  -0.00000  -0.00001  -0.00001   0.00000
   D29        0.00001  -0.00000  -0.00000  -0.00000  -0.00000   0.00000
   D30       -3.14159  -0.00000  -0.00000  -0.00000  -0.00000  -3.14159
   D31       -3.14159   0.00000  -0.00000   0.00000  -0.00000  -3.14159
   D32        0.00000  -0.00000  -0.00000   0.00000  -0.00000   0.00000
   D33        0.00000  -0.00000   0.00000  -0.00000  -0.00000   0.00000
   D34        3.14159   0.00000   0.00000   0.00000   0.00000  -3.14159
   D35       -3.14159  -0.00000   0.00000  -0.00000  -0.00000  -3.14159
   D36        0.00000  -0.00000   0.00000  -0.00000   0.00000   0.00000
   D37        0.00001  -0.00000  -0.00000  -0.00000  -0.00000   0.00000
   D38       -3.14159  -0.00000   0.00000  -0.00000   0.00000  -3.14159
   D39       -3.14158  -0.00000  -0.00000  -0.00001  -0.00001  -3.14159
   D40        0.00001  -0.00000  -0.00000  -0.00001  -0.00001   0.00000
   D41       -0.00001   0.00000  -0.00000   0.00000   0.00000  -0.00000
   D42        3.14159  -0.00000  -0.00000   0.00000   0.00000   3.14159
   D43        3.14158   0.00000   0.00000   0.00001   0.00001   3.14159
   D44       -0.00001   0.00000   0.00000   0.00000   0.00001  -0.00000
   D45        0.00000  -0.00000  -0.00000  -0.00000  -0.00000   0.00000
   D46       -3.14158  -0.00000  -0.00000  -0.00000  -0.00001  -3.14159
   D47       -0.00001   0.00000  -0.00000   0.00000   0.00000  -0.00000
   D48        3.14158   0.00000   0.00000   0.00000   0.00000   3.14159
   D49       -3.14159  -0.00000  -0.00000   0.00000  -0.00000   3.14159
   D50       -0.00000   0.00000  -0.00000   0.00000   0.00000  -0.00000
   D51       -0.00000  -0.00000   0.00000  -0.00000   0.00000  -0.00000
   D52       -3.14159  -0.00000  -0.00000  -0.00000  -0.00000  -3.14159
   D53        3.14159   0.00000   0.00000   0.00000   0.00000   3.14159
   D54       -0.00000   0.00000  -0.00000   0.00000   0.00000  -0.00000
   D55        0.00001  -0.00000  -0.00000  -0.00000  -0.00000   0.00000
   D56       -3.14158  -0.00000  -0.00000  -0.00001  -0.00001  -3.14159
   D57        3.14159   0.00000   0.00000   0.00000   0.00000   3.14159
   D58       -0.00000   0.00000   0.00000   0.00000   0.00000  -0.00000
   D59       -0.00001   0.00000   0.00000   0.00001   0.00001  -0.00000
   D60        3.14157   0.00000   0.00000   0.00001   0.00001   3.14159
   D61       -0.00000   0.00000   0.00000   0.00000   0.00000  -0.00000
   D62        3.14159   0.00000   0.00000   0.00000   0.00001   3.14159
   D63       -0.00001   0.00000   0.00000   0.00001   0.00001  -0.00000
   D64        3.14157   0.00000   0.00000   0.00001   0.00002   3.14159
   D65        3.14158   0.00000   0.00000   0.00000   0.00001   3.14159
   D66       -0.00001   0.00000   0.00000   0.00001   0.00001  -0.00000
   D67       -3.14158  -0.00000  -0.00000  -0.00001  -0.00001  -3.14159
   D68        0.00001  -0.00000  -0.00000  -0.00001  -0.00001   0.00000
   D69        0.00000  -0.00000  -0.00000   0.00000   0.00000   0.00000
   D70       -3.14159  -0.00000   0.00000  -0.00000  -0.00000  -3.14159
   D71       -0.00000   0.00000   0.00000   0.00000   0.00000  -0.00000
   D72        3.14159   0.00000  -0.00000   0.00001   0.00001   3.14159
   D73       -3.14159   0.00000  -0.00000   0.00000  -0.00000  -3.14159
   D74        0.00000  -0.00000  -0.00000  -0.00000  -0.00000  -0.00000
   D75        0.00000  -0.00000  -0.00000  -0.00000  -0.00000   0.00000
   D76        3.14159  -0.00000  -0.00000  -0.00000  -0.00000   3.14159
   D77       -0.00001   0.00000   0.00000   0.00000   0.00001  -0.00000
   D78        3.14158   0.00000   0.00000   0.00001   0.00001   3.14159
   D79        3.14159   0.00000   0.00000   0.00000   0.00001  -3.14159
   D80       -0.00001   0.00000   0.00000   0.00001   0.00001   0.00000
   D81       -3.14158  -0.00000  -0.00000  -0.00001  -0.00001  -3.14159
   D82        0.00001  -0.00000  -0.00000  -0.00001  -0.00001   0.00000
   D83       -0.00000   0.00000  -0.00000   0.00000   0.00000  -0.00000
   D84        3.14159   0.00000  -0.00000   0.00000   0.00000   3.14159
   D85       -3.14159  -0.00000  -0.00000  -0.00000  -0.00000  -3.14159
   D86       -0.00000  -0.00000  -0.00000   0.00000  -0.00000  -0.00000
   D87        0.00001  -0.00000  -0.00000  -0.00000  -0.00001   0.00000
   D88       -3.14158  -0.00000  -0.00000  -0.00001  -0.00001  -3.14159
   D89       -3.14159  -0.00000  -0.00000  -0.00000  -0.00000  -3.14159
   D90        0.00001  -0.00000  -0.00000  -0.00000  -0.00001   0.00000
   D91        0.00000  -0.00000  -0.00000  -0.00000  -0.00000  -0.00000
   D92       -3.14159  -0.00000  -0.00000  -0.00000  -0.00000  -3.14159
   D93       -3.14159  -0.00000  -0.00000  -0.00000  -0.00000   3.14159
   D94        0.00000  -0.00000  -0.00000   0.00000  -0.00000   0.00000
   D95        3.14158   0.00000   0.00000   0.00000   0.00001   3.14159
   D96       -0.00001   0.00000   0.00000   0.00000   0.00001  -0.00000
   D97       -0.00001   0.00000   0.00000  -0.00000   0.00000  -0.00000
   D98        3.14159  -0.00000   0.00000  -0.00000   0.00000  -3.14159
   D99       -0.00000   0.00000  -0.00000   0.00000   0.00000  -0.00000
   D100       3.14159   0.00000  -0.00000   0.00000   0.00000   3.14159
   D101      -3.14158  -0.00000  -0.00000  -0.00001  -0.00001  -3.14159
   D102       0.00001  -0.00000  -0.00000  -0.00000  -0.00001   0.00000
   D103      -0.00001   0.00000   0.00000   0.00000   0.00001  -0.00000
   D104       3.14157   0.00000   0.00000   0.00001   0.00002   3.14159
   D105       3.14159   0.00000  -0.00000   0.00000   0.00000   3.14159
   D106       0.00000   0.00000  -0.00000   0.00000  -0.00000  -0.00000
   D107      -0.00000   0.00000  -0.00000   0.00000  -0.00000  -0.00000
   D108      -3.14159  -0.00000  -0.00000  -0.00000  -0.00000  -3.14159
   D109      -0.00000   0.00000   0.00000   0.00000   0.00000   0.00000
   D110       3.14159   0.00000   0.00000   0.00000   0.00000  -3.14159
   D111       3.14158   0.00000   0.00000   0.00000   0.00001   3.14159
   D112      -0.00001   0.00000   0.00000   0.00000   0.00000  -0.00000
   D113      -0.00000   0.00000  -0.00000   0.00000  -0.00000  -0.00000
   D114       3.14159   0.00000  -0.00000   0.00000   0.00000   3.14159
   D115      -3.14159  -0.00000  -0.00000   0.00000  -0.00000  -3.14159
   D116      -0.00000   0.00000  -0.00000   0.00000  -0.00000  -0.00000
   D117      -3.14158  -0.00000  -0.00000  -0.00001  -0.00001  -3.14159
   D118       0.00001  -0.00000  -0.00000  -0.00000  -0.00000   0.00000
   D119       0.00001  -0.00000  -0.00000  -0.00001  -0.00001   0.00000
   D120      -3.14159  -0.00000  -0.00000  -0.00000  -0.00000  -3.14159
   D121       0.00001  -0.00000  -0.00000  -0.00000  -0.00000   0.00000
   D122      -3.14159  -0.00000   0.00000  -0.00000  -0.00000   3.14159
   D123      -3.14158  -0.00000  -0.00000  -0.00000  -0.00000  -3.14159
   D124       0.00000  -0.00000   0.00000  -0.00000  -0.00000   0.00000
   D125      -0.00001   0.00000   0.00000   0.00000   0.00000  -0.00000
   D126       3.14159   0.00000   0.00000   0.00000   0.00000   3.14159
   D127       3.14158   0.00000   0.00000   0.00000   0.00000   3.14159
   D128      -0.00001   0.00000   0.00000   0.00000   0.00000  -0.00000
   D129       0.00000  -0.00000  -0.00000  -0.00000  -0.00000   0.00000
   D130      -3.14159  -0.00000  -0.00000  -0.00000  -0.00000  -3.14159
   D131       3.14158   0.00000   0.00000   0.00000   0.00001   3.14159
   D132      -0.00001   0.00000   0.00000   0.00000   0.00000  -0.00000
   D133       3.14159   0.00000   0.00000   0.00000   0.00000   3.14159
   D134      -0.00000   0.00000   0.00000   0.00000   0.00000  -0.00000
   D135       0.00001  -0.00000  -0.00000  -0.00000  -0.00000   0.00000
   D136      -3.14158  -0.00000  -0.00000  -0.00001  -0.00001  -3.14159
   D137      -3.14158  -0.00000  -0.00000  -0.00000  -0.00001  -3.14159
   D138       0.00001  -0.00000  -0.00000  -0.00000  -0.00001   0.00000
   D139       0.00001  -0.00000  -0.00000  -0.00000  -0.00001   0.00000
   D140      -3.14159  -0.00000  -0.00000  -0.00000  -0.00001  -3.14159
   D141       0.00000  -0.00000   0.00000  -0.00000  -0.00000   0.00000
   D142       3.14159   0.00000   0.00000   0.00000   0.00000  -3.14159
   D143      -3.14159  -0.00000   0.00000  -0.00000  -0.00000  -3.14159
   D144      -0.00000   0.00000   0.00000   0.00000   0.00000   0.00000
   D145       0.00001  -0.00000  -0.00000  -0.00001  -0.00001   0.00000
   D146      -3.14159  -0.00000  -0.00000  -0.00000  -0.00000  -3.14159
   D147      -3.14158  -0.00000  -0.00000  -0.00001  -0.00001  -3.14159
   D148       0.00001  -0.00000  -0.00000  -0.00000  -0.00001  -0.00000
   D149      -0.00001   0.00000   0.00000   0.00001   0.00001  -0.00000
   D150       3.14158   0.00000   0.00000   0.00001   0.00001   3.14159
   D151       3.14158   0.00000   0.00000   0.00001   0.00001   3.14159
   D152      -0.00001   0.00000   0.00000   0.00001   0.00001  -0.00000
   D153       0.00001  -0.00000  -0.00000  -0.00000  -0.00000   0.00000
   D154      -3.14158  -0.00000  -0.00000  -0.00001  -0.00001  -3.14159
   D155      -0.00000   0.00000   0.00000  -0.00000  -0.00000  -0.00000
   D156      -3.14159   0.00000  -0.00000   0.00000   0.00000  -3.14159
   D157       3.14158   0.00000   0.00000   0.00000   0.00001   3.14159
   D158      -0.00001   0.00000   0.00000   0.00001   0.00001  -0.00000
   D159       3.14158   0.00000   0.00000   0.00000   0.00001   3.14159
   D160      -0.00000   0.00000   0.00000   0.00000   0.00000  -0.00000
   D161      -0.00000  -0.00000   0.00000  -0.00000   0.00000   0.00000
   D162      -3.14159  -0.00000  -0.00000  -0.00000  -0.00000  -3.14159
   D163       3.14158   0.00000   0.00000   0.00001   0.00001   3.14159
   D164      -0.00001   0.00000  -0.00000   0.00001   0.00000  -0.00000
   D165      -0.00001   0.00000   0.00000   0.00000   0.00000  -0.00000
   D166       3.14159   0.00000  -0.00000   0.00000   0.00000   3.14159
   D167      -0.00000   0.00000   0.00000   0.00000   0.00000   0.00000
   D168      -3.14158  -0.00000  -0.00000  -0.00001  -0.00001  -3.14159
   D169       3.14159   0.00000   0.00000   0.00000   0.00001  -3.14159
   D170       0.00001  -0.00000   0.00000  -0.00001  -0.00001   0.00000
   D171      -0.00001   0.00000   0.00000   0.00001   0.00001  -0.00000
   D172       3.14158   0.00000   0.00000   0.00001   0.00001   3.14159
   D173      -3.14159  -0.00000  -0.00000  -0.00000  -0.00000   3.14159
   D174       0.00000   0.00000  -0.00000  -0.00000  -0.00000  -0.00000
   D175      -3.14158  -0.00000  -0.00000  -0.00001  -0.00001  -3.14159
   D176       0.00000   0.00000  -0.00000   0.00000  -0.00000   0.00000
   D177       0.00000  -0.00000   0.00000  -0.00000  -0.00000   0.00000
   D178       3.14158   0.00000   0.00000   0.00001   0.00001   3.14159
   D179       0.00001  -0.00000  -0.00000  -0.00001  -0.00001   0.00000
   D180      -3.14157  -0.00000  -0.00000  -0.00001  -0.00002  -3.14159
   D181      -0.00000   0.00000  -0.00000   0.00000   0.00000   0.00000
   D182       3.14159   0.00000   0.00000   0.00000   0.00000   3.14159
   D183      -3.14159  -0.00000  -0.00000  -0.00000  -0.00000  -3.14159
   D184       0.00000  -0.00000  -0.00000  -0.00000  -0.00000  -0.00000
   D185       0.00001  -0.00000  -0.00000  -0.00001  -0.00001   0.00000
   D186      -3.14158  -0.00000  -0.00000  -0.00001  -0.00001  -3.14159
   D187      -3.14159  -0.00000   0.00000  -0.00000  -0.00000  -3.14159
   D188       0.00001  -0.00000  -0.00000  -0.00000  -0.00001   0.00000
   D189      -0.00001   0.00000   0.00000   0.00001   0.00001  -0.00000
   D190       3.14158   0.00000   0.00000   0.00001   0.00001   3.14159
   D191      -0.00001   0.00000   0.00000   0.00001   0.00001  -0.00000
   D192       3.14157   0.00000   0.00000   0.00001   0.00002   3.14159
         Item               Value     Threshold  Converged?
 Maximum Force            0.000454     0.000450     NO 
 RMS     Force            0.000097     0.000300     YES
 Maximum Displacement     0.001739     0.001800     YES
 RMS     Displacement     0.000426     0.001200     YES
 Predicted change in Energy=-6.677331D-06
 GradGradGradGradGradGradGradGradGradGradGradGradGradGradGradGradGradGrad

 Stoichiometry    C36H12N12
 Framework group  C1[X(C36H12N12)]
 Deg. of freedom   174
 Full point group                 C1      NOp   1
 Largest Abelian subgroup         C1      NOp   1
 Largest concise Abelian subgroup C1      NOp   1
                         Standard orientation:                         
 ---------------------------------------------------------------------
 Center     Atomic      Atomic             Coordinates (Angstroms)
 Number     Number       Type             X           Y           Z
 ---------------------------------------------------------------------
      1          6           0        4.428579   -2.295641    0.000001
      2          6           0        2.029578   -2.982471   -0.000008
      3          6           0        3.840711   -4.672332    0.000005
      4          6           0       -2.125855   -5.662330   -0.000002
      5          6           0        0.226230   -4.982963   -0.000003
      6          6           0       -1.568293   -3.248801   -0.000011
      7          6           0       -2.556099   -4.283425   -0.000005
      8          6           0       -0.154895   -3.604170   -0.000010
      9          6           0       -0.804883   -5.994434   -0.000001
     10          6           0        4.788862   -3.694477    0.000005
     11          6           0        2.431505   -4.355361   -0.000000
     12          6           0        3.044004   -1.936141   -0.000007
     13          7           0        1.521264   -5.345186    0.000001
     14          7           0        0.747337   -2.625712   -0.000014
     15          7           0       -1.900434   -1.959945   -0.000015
     16          7           0        2.647818   -0.665476   -0.000012
     17          7           0       -3.868524   -3.990261   -0.000001
     18          7           0        5.389887   -1.355362    0.000004
     19          6           0       -3.598022   -0.266404   -0.000009
     20          6           0       -5.966785   -0.990046    0.000006
     21          6           0       -4.202366   -2.687591   -0.000003
     22          6           0       -3.199023   -1.668116   -0.000011
     23          6           0       -5.593905   -2.300139    0.000004
     24          6           0       -4.987860    0.072056    0.000001
     25          7           0       -5.389887    1.355362    0.000005
     26          7           0       -2.647818    0.665476   -0.000012
     27          6           0        3.598021    0.266404   -0.000007
     28          6           0        5.966785    0.990047    0.000009
     29          6           0        4.202365    2.687592    0.000004
     30          6           0        3.199021    1.668116   -0.000006
     31          6           0        5.593905    2.300139    0.000010
     32          6           0        4.987860   -0.072057    0.000002
     33          7           0        3.868525    3.990261    0.000010
     34          7           0        1.900434    1.959945   -0.000012
     35          6           0        2.125855    5.662330    0.000014
     36          6           0       -0.226229    4.982962    0.000008
     37          6           0        1.568292    3.248802   -0.000004
     38          6           0       -4.428579    2.295641    0.000004
     39          6           0       -2.029577    2.982470   -0.000003
     40          6           0       -3.840711    4.672332    0.000012
     41          6           0       -4.788862    3.694477    0.000010
     42          6           0       -2.431504    4.355361    0.000007
     43          6           0       -3.044004    1.936140   -0.000004
     44          6           0        2.556098    4.283425    0.000006
     45          6           0        0.154896    3.604171   -0.000003
     46          6           0        0.804883    5.994434    0.000015
     47          7           0       -0.747337    2.625712   -0.000010
     48          7           0       -1.521264    5.345186    0.000012
     49          1           0       -6.329024   -3.098354    0.000010
     50          1           0       -7.012066   -0.698626    0.000012
     51          1           0       -2.900966   -6.421778    0.000002
     52          1           0       -0.480883   -7.030078    0.000001
     53          1           0        4.110817   -5.723323    0.000009
     54          1           0        5.847723   -3.931918    0.000010
     55          1           0        7.012066    0.698626    0.000013
     56          1           0        6.329024    3.098354    0.000018
     57          1           0        2.900967    6.421778    0.000021
     58          1           0        0.480883    7.030078    0.000021
     59          1           0       -4.110816    5.723323    0.000017
     60          1           0       -5.847723    3.931919    0.000014
 ---------------------------------------------------------------------
 Rotational constants (GHZ):      0.0694845      0.0694817      0.0347416
 Standard basis: 6-31G(d,p) (6D, 7F)
 There are   780 symmetry adapted cartesian basis functions of A   symmetry.
 There are   780 symmetry adapted basis functions of A   symmetry.
   780 basis functions,  1428 primitive gaussians,   780 cartesian basis functions
   156 alpha electrons      156 beta electrons
       nuclear repulsion energy      5333.4641378996 Hartrees.
 NAtoms=   60 NActive=   60 NUniq=   60 SFac= 1.00D+00 NAtFMM=   60 NAOKFM=T Big=T
 Integral buffers will be    131072 words long.
 Raffenetti 2 integral format.
 Two-electron integral symmetry is turned on.
 One-electron integrals computed using PRISM.
 NBasis=   780 RedAO= T EigKep=  2.21D-04  NBF=   780
 NBsUse=   780 1.00D-06 EigRej= -1.00D+00 NBFU=   780
 Initial guess from the checkpoint file:  "/scratch/tmp/3419170/Gau-179605.chk"
 B after Tr=    -0.000000    0.000000   -0.000000
         Rot=    0.972842   -0.000000   -0.000000   -0.231471 Ang= -26.77 deg.
 Requested convergence on RMS density matrix=1.00D-08 within  64 cycles.
 Requested convergence on MAX density matrix=1.00D-06.
 Requested convergence on             energy=1.00D-06.
 No special actions if energy rises.
 SCF Done:  E(RB3LYP) =  -2036.17371954     A.U. after    7 cycles
            NFock=  7  Conv=0.77D-08     -V/T= 2.0093
 QCSCF skips out because SCF is already converged.
 Calling FoFJK, ICntrl=      2127 FMM=T ISym2X=0 I1Cent= 0 IOpClX= 0 NMat=1 NMatS=1 NMatT=0.
 ***** Axes restored to original set *****
 -------------------------------------------------------------------
 Center     Atomic                   Forces (Hartrees/Bohr)
 Number     Number              X              Y              Z
 -------------------------------------------------------------------
      1        6          -0.000044647   -0.000066647   -0.000000045
      2        6           0.000005861    0.000037467   -0.000000038
      3        6           0.000042743    0.000064251   -0.000000022
      4        6           0.000149242   -0.000008066    0.000000051
      5        6          -0.000007596   -0.000043985   -0.000000171
      6        6          -0.000032268   -0.000041837    0.000000004
      7        6           0.000032113    0.000074904   -0.000000038
      8        6          -0.000054230   -0.000066840    0.000000010
      9        6          -0.000066861   -0.000013112   -0.000000017
     10        6           0.000002016   -0.000126570    0.000000016
     11        6           0.000081803    0.000037566   -0.000000095
     12        6           0.000013822    0.000013421   -0.000000020
     13        7           0.000026721   -0.000052827    0.000000071
     14        7          -0.000012126    0.000027632    0.000000134
     15        7           0.000016579    0.000162434    0.000000009
     16        7          -0.000096339    0.000102966    0.000000034
     17        7           0.000004731   -0.000112910    0.000000047
     18        7           0.000093072   -0.000073367    0.000000025
     19        6          -0.000083012   -0.000067087    0.000000082
     20        6           0.000041365   -0.000038326    0.000000014
     21        6           0.000051172    0.000045956   -0.000000106
     22        6          -0.000031888   -0.000089873    0.000000121
     23        6          -0.000058290    0.000091954    0.000000052
     24        6           0.000031770   -0.000003202   -0.000000148
     25        7          -0.000093141    0.000074029    0.000000033
     26        7           0.000096274   -0.000102573    0.000000064
     27        6           0.000082933    0.000066734    0.000000024
     28        6          -0.000041431    0.000038727   -0.000000007
     29        6          -0.000051797   -0.000044767   -0.000000028
     30        6           0.000030991    0.000089537    0.000000054
     31        6           0.000058716   -0.000092281    0.000000045
     32        6          -0.000031493    0.000002632   -0.000000105
     33        7          -0.000003353    0.000112377   -0.000000032
     34        7          -0.000015665   -0.000162818    0.000000100
     35        6          -0.000148807    0.000008026    0.000000007
     36        6           0.000008744    0.000043990   -0.000000099
     37        6           0.000031969    0.000042745   -0.000000035
     38        6           0.000044475    0.000066039   -0.000000010
     39        6          -0.000005287   -0.000037638   -0.000000058
     40        6          -0.000043032   -0.000064501   -0.000000031
     41        6          -0.000002089    0.000126897   -0.000000003
     42        6          -0.000081393   -0.000036691   -0.000000022
     43        6          -0.000013553   -0.000013608   -0.000000107
     44        6          -0.000033586   -0.000075389    0.000000051
     45        6           0.000054435    0.000067365   -0.000000041
     46        6           0.000066475    0.000012955   -0.000000023
     47        7           0.000011554   -0.000027962    0.000000166
     48        7          -0.000027687    0.000052253    0.000000002
     49        1           0.000038784   -0.000017480   -0.000000061
     50        1           0.000013965    0.000033204    0.000000016
     51        1          -0.000036421    0.000010447   -0.000000031
     52        1           0.000037336    0.000044652    0.000000063
     53        1          -0.000039918   -0.000011248    0.000000011
     54        1          -0.000002756    0.000045285    0.000000018
     55        1          -0.000013972   -0.000033209    0.000000040
     56        1          -0.000038824    0.000017525   -0.000000054
     57        1           0.000036431   -0.000010465   -0.000000028
     58        1          -0.000037342   -0.000044670    0.000000054
     59        1           0.000039941    0.000011268    0.000000029
     60        1           0.000002769   -0.000045290    0.000000027
 -------------------------------------------------------------------
 Cartesian Forces:  Max     0.000162818 RMS     0.000048862

 GradGradGradGradGradGradGradGradGradGradGradGradGradGradGradGradGradGrad
 Berny optimization.
 Using GEDIIS/GDIIS optimizer.
 FormGI is forming the generalized inverse of G from B-inverse, IUseBI=4.
 Internal  Forces:  Max     0.000100734 RMS     0.000030115
 Search for a local minimum.
 Step number   4 out of a maximum of  360
 All quantities printed in internal units (Hartrees-Bohrs-Radians)
 Mixed Optimization -- En-DIIS/RFO-DIIS
 Swapping is turned off.
 Update second derivatives using D2CorX and points    1    2    3    4
 DE= -1.64D-04 DEPred=-6.68D-06 R= 2.45D+01
 TightC=F SS=  1.41D+00  RLast= 7.53D-03 DXNew= 5.0454D-01 2.2577D-02
 Trust test= 2.45D+01 RLast= 7.53D-03 DXMaxT set to 3.00D-01
 ITU=  1  1  1  0
     Eigenvalues ---    0.01578   0.01582   0.01583   0.01619   0.01619
     Eigenvalues ---    0.01621   0.01639   0.01639   0.01646   0.01745
     Eigenvalues ---    0.01764   0.01766   0.01766   0.01776   0.01776
     Eigenvalues ---    0.01800   0.01800   0.01818   0.01825   0.01825
     Eigenvalues ---    0.01833   0.01839   0.01842   0.01842   0.01908
     Eigenvalues ---    0.01909   0.01935   0.01953   0.01954   0.02013
     Eigenvalues ---    0.02023   0.02023   0.02030   0.02055   0.02055
     Eigenvalues ---    0.02056   0.02062   0.02062   0.02066   0.02074
     Eigenvalues ---    0.02115   0.02115   0.02154   0.02154   0.02183
     Eigenvalues ---    0.02292   0.02296   0.02296   0.02320   0.02320
     Eigenvalues ---    0.02320   0.02392   0.02392   0.02591   0.02592
     Eigenvalues ---    0.02592   0.02593   0.12536   0.16000   0.16000
     Eigenvalues ---    0.16000   0.16000   0.16000   0.16000   0.16000
     Eigenvalues ---    0.16000   0.16000   0.16000   0.16010   0.22435
     Eigenvalues ---    0.22499   0.22509   0.22530   0.22530   0.22534
     Eigenvalues ---    0.23423   0.24501   0.24509   0.24614   0.24614
     Eigenvalues ---    0.24788   0.24840   0.25000   0.25000   0.25000
     Eigenvalues ---    0.25000   0.25000   0.25000   0.25000   0.25000
     Eigenvalues ---    0.25000   0.25000   0.25000   0.25000   0.25000
     Eigenvalues ---    0.25000   0.25000   0.25000   0.25000   0.25000
     Eigenvalues ---    0.25007   0.27967   0.31724   0.31727   0.32218
     Eigenvalues ---    0.34488   0.35174   0.35446   0.35447   0.35447
     Eigenvalues ---    0.35448   0.35448   0.35448   0.35449   0.35450
     Eigenvalues ---    0.35450   0.35452   0.35453   0.35468   0.35569
     Eigenvalues ---    0.35585   0.35588   0.35652   0.35998   0.36442
     Eigenvalues ---    0.36761   0.36972   0.38138   0.38210   0.38223
     Eigenvalues ---    0.38265   0.38266   0.38957   0.38963   0.38998
     Eigenvalues ---    0.39016   0.39029   0.39065   0.41160   0.41278
     Eigenvalues ---    0.41498   0.41619   0.41625   0.43491   0.47001
     Eigenvalues ---    0.48182   0.48186   0.52778   0.52804   0.52840
     Eigenvalues ---    0.53063   0.53070   0.53781   0.54051   0.54059
     Eigenvalues ---    0.54161   0.55920   0.55973   0.56065   0.56069
     Eigenvalues ---    0.56082   0.56138   0.58099   0.58104   0.59342
     Eigenvalues ---    0.59347   0.59377   0.59628   0.59637   0.59638
     Eigenvalues ---    0.59640   0.59679   0.60211   0.64295
 En-DIIS/RFO-DIIS IScMMF=        0 using points:     4    3    2
 RFO step:  Lambda=-6.71295087D-07.
 DidBck=F Rises=F RFO-DIIS coefs:    1.09031   -0.08910   -0.00120
 Iteration  1 RMS(Cart)=  0.00021907 RMS(Int)=  0.00000004
 Iteration  2 RMS(Cart)=  0.00000006 RMS(Int)=  0.00000000
 Variable       Old X    -DE/DX   Delta X   Delta X   Delta X     New X
                                 (Linear)    (Quad)   (Total)
    R1        2.72969  -0.00002  -0.00013  -0.00010  -0.00023   2.72946
    R2        2.70323  -0.00001   0.00001  -0.00001   0.00000   2.70323
    R3        2.54113  -0.00001  -0.00001  -0.00001  -0.00002   2.54111
    R4        2.70328  -0.00005   0.00001  -0.00010  -0.00009   2.70319
    R5        2.75399   0.00002  -0.00009   0.00000  -0.00009   2.75390
    R6        2.51512  -0.00002  -0.00001  -0.00005  -0.00006   2.51507
    R7        2.57391   0.00009   0.00002   0.00021   0.00023   2.57414
    R8        2.72955   0.00005  -0.00013   0.00010  -0.00003   2.72952
    R9        2.05063   0.00001  -0.00001   0.00004   0.00003   2.05065
   R10        2.72965  -0.00005  -0.00013  -0.00017  -0.00030   2.72935
   R11        2.57396   0.00007   0.00003   0.00017   0.00019   2.57415
   R12        2.05064  -0.00001  -0.00001  -0.00002  -0.00003   2.05061
   R13        2.70325  -0.00003   0.00001  -0.00004  -0.00003   2.70322
   R14        2.72951   0.00007  -0.00014   0.00017   0.00004   2.72954
   R15        2.54119  -0.00001   0.00000  -0.00001  -0.00001   2.54117
   R16        2.70317   0.00002   0.00000   0.00007   0.00008   2.70325
   R17        2.75406   0.00001  -0.00009  -0.00002  -0.00011   2.75396
   R18        2.51516  -0.00007  -0.00001  -0.00014  -0.00014   2.51502
   R19        2.54125  -0.00003   0.00000  -0.00005  -0.00005   2.54119
   R20        2.51511  -0.00003  -0.00001  -0.00006  -0.00008   2.51504
   R21        2.05062   0.00001  -0.00001   0.00005   0.00004   2.05066
   R22        2.05065  -0.00000  -0.00001  -0.00000  -0.00001   2.05063
   R23        2.54117  -0.00002  -0.00000  -0.00003  -0.00004   2.54113
   R24        2.51522  -0.00008  -0.00001  -0.00015  -0.00016   2.51506
   R25        2.51518  -0.00003  -0.00001  -0.00005  -0.00006   2.51512
   R26        2.51503   0.00003  -0.00001   0.00005   0.00003   2.51506
   R27        2.54124  -0.00008  -0.00000  -0.00014  -0.00014   2.54111
   R28        2.54131  -0.00010  -0.00000  -0.00018  -0.00018   2.54113
   R29        2.75407   0.00002  -0.00009   0.00001  -0.00008   2.75400
   R30        2.70317   0.00004   0.00001   0.00013   0.00014   2.70332
   R31        2.51503   0.00003  -0.00001   0.00005   0.00003   2.51507
   R32        2.57404  -0.00001   0.00003   0.00001   0.00003   2.57407
   R33        2.72956   0.00003  -0.00014   0.00005  -0.00009   2.72948
   R34        2.05063   0.00001  -0.00001   0.00005   0.00004   2.05066
   R35        2.70305   0.00006   0.00000   0.00019   0.00019   2.70325
   R36        2.72966  -0.00003  -0.00013  -0.00013  -0.00026   2.72939
   R37        2.05063   0.00000  -0.00001   0.00000  -0.00001   2.05063
   R38        2.54131  -0.00010  -0.00000  -0.00018  -0.00019   2.54113
   R39        2.54113  -0.00001  -0.00001  -0.00001  -0.00002   2.54111
   R40        2.51522  -0.00008  -0.00001  -0.00015  -0.00016   2.51506
   R41        2.75408   0.00002  -0.00009   0.00001  -0.00008   2.75400
   R42        2.70317   0.00004   0.00001   0.00013   0.00014   2.70332
   R43        2.57404  -0.00001   0.00003   0.00001   0.00003   2.57407
   R44        2.72956   0.00003  -0.00014   0.00005  -0.00009   2.72948
   R45        2.05063   0.00001  -0.00001   0.00005   0.00004   2.05066
   R46        2.70305   0.00006   0.00000   0.00019   0.00019   2.70325
   R47        2.72966  -0.00003  -0.00013  -0.00013  -0.00026   2.72939
   R48        2.54124  -0.00007   0.00000  -0.00013  -0.00013   2.54111
   R49        2.51518  -0.00002  -0.00001  -0.00005  -0.00006   2.51512
   R50        2.05063   0.00000  -0.00001   0.00000  -0.00001   2.05063
   R51        2.54125  -0.00003   0.00000  -0.00006  -0.00006   2.54119
   R52        2.51516  -0.00007  -0.00001  -0.00014  -0.00014   2.51502
   R53        2.72965  -0.00005  -0.00013  -0.00017  -0.00030   2.72935
   R54        2.57396   0.00007   0.00003   0.00017   0.00019   2.57415
   R55        2.05064  -0.00001  -0.00001  -0.00002  -0.00003   2.05061
   R56        2.70325  -0.00003   0.00001  -0.00004  -0.00003   2.70322
   R57        2.72950   0.00007  -0.00014   0.00018   0.00004   2.72954
   R58        2.54119  -0.00001   0.00000  -0.00001  -0.00001   2.54117
   R59        2.70317   0.00002   0.00000   0.00007   0.00008   2.70325
   R60        2.75406   0.00001  -0.00009  -0.00002  -0.00010   2.75396
   R61        2.72969  -0.00002  -0.00013  -0.00010  -0.00023   2.72946
   R62        2.70323  -0.00001   0.00001  -0.00001   0.00000   2.70323
   R63        2.70328  -0.00005   0.00001  -0.00011  -0.00009   2.70319
   R64        2.75399   0.00002  -0.00009   0.00000  -0.00009   2.75390
   R65        2.51512  -0.00002  -0.00001  -0.00005  -0.00006   2.51507
   R66        2.57391   0.00009   0.00002   0.00021   0.00023   2.57414
   R67        2.72955   0.00005  -0.00013   0.00010  -0.00003   2.72952
   R68        2.05063   0.00001  -0.00001   0.00004   0.00003   2.05065
   R69        2.05065  -0.00000  -0.00001  -0.00000  -0.00001   2.05063
   R70        2.54117  -0.00002  -0.00000  -0.00003  -0.00004   2.54113
   R71        2.51512  -0.00003  -0.00001  -0.00006  -0.00008   2.51504
   R72        2.05062   0.00001  -0.00001   0.00005   0.00004   2.05066
    A1        2.07691  -0.00007  -0.00001  -0.00029  -0.00030   2.07662
    A2        2.09306   0.00004   0.00002   0.00020   0.00022   2.09328
    A3        2.11322   0.00002  -0.00001   0.00009   0.00008   2.11329
    A4        2.08687   0.00001  -0.00000   0.00004   0.00004   2.08691
    A5        2.12696  -0.00000  -0.00003  -0.00000  -0.00003   2.12693
    A6        2.06935  -0.00001   0.00003  -0.00004  -0.00000   2.06934
    A7        2.11953   0.00002   0.00001   0.00011   0.00012   2.11965
    A8        2.12006  -0.00005  -0.00008  -0.00036  -0.00044   2.11961
    A9        2.04360   0.00003   0.00007   0.00025   0.00032   2.04392
   A10        2.11955  -0.00002   0.00001  -0.00010  -0.00008   2.11946
   A11        2.04354   0.00005   0.00008   0.00034   0.00042   2.04396
   A12        2.12010  -0.00003  -0.00009  -0.00024  -0.00033   2.11976
   A13        2.07689  -0.00001  -0.00002  -0.00002  -0.00004   2.07686
   A14        2.11321  -0.00003  -0.00001  -0.00011  -0.00012   2.11309
   A15        2.09308   0.00003   0.00003   0.00013   0.00016   2.09324
   A16        2.08673   0.00006   0.00000   0.00024   0.00024   2.08697
   A17        2.12712  -0.00005  -0.00003  -0.00018  -0.00020   2.12692
   A18        2.06933  -0.00001   0.00002  -0.00006  -0.00003   2.06930
   A19        2.07689  -0.00001  -0.00002  -0.00006  -0.00007   2.07682
   A20        2.09301   0.00003   0.00003   0.00012   0.00015   2.09316
   A21        2.11328  -0.00001  -0.00001  -0.00006  -0.00007   2.11321
   A22        2.08680  -0.00003   0.00001  -0.00016  -0.00015   2.08665
   A23        2.12702   0.00001  -0.00003   0.00009   0.00006   2.12707
   A24        2.06936   0.00002   0.00003   0.00007   0.00010   2.06946
   A25        2.11951   0.00002   0.00001   0.00010   0.00011   2.11962
   A26        2.12030  -0.00006  -0.00009  -0.00044  -0.00052   2.11978
   A27        2.04338   0.00005   0.00007   0.00034   0.00041   2.04379
   A28        2.11953   0.00001   0.00001   0.00008   0.00009   2.11962
   A29        2.04347   0.00004   0.00007   0.00027   0.00034   2.04381
   A30        2.12018  -0.00005  -0.00008  -0.00035  -0.00043   2.11975
   A31        2.07684  -0.00005  -0.00001  -0.00022  -0.00023   2.07662
   A32        2.11325   0.00000  -0.00002   0.00001  -0.00000   2.11325
   A33        2.09309   0.00005   0.00002   0.00020   0.00023   2.09331
   A34        2.08668   0.00007   0.00000   0.00027   0.00028   2.08695
   A35        2.12708  -0.00004  -0.00003  -0.00017  -0.00020   2.12688
   A36        2.06943  -0.00003   0.00003  -0.00011  -0.00008   2.06936
   A37        2.04160   0.00001   0.00003   0.00004   0.00007   2.04167
   A38        2.04432   0.00000   0.00006  -0.00003   0.00002   2.04434
   A39        2.04407   0.00008   0.00005   0.00033   0.00037   2.04444
   A40        2.04422   0.00003   0.00005   0.00012   0.00018   2.04440
   A41        2.04144   0.00005   0.00003   0.00021   0.00024   2.04168
   A42        2.04155   0.00003   0.00003   0.00011   0.00014   2.04169
   A43        2.08699  -0.00008   0.00001  -0.00035  -0.00034   2.08665
   A44        2.06914   0.00009   0.00002   0.00034   0.00036   2.06950
   A45        2.12705  -0.00001  -0.00003   0.00001  -0.00002   2.12703
   A46        2.11964  -0.00001   0.00001  -0.00006  -0.00005   2.11959
   A47        2.11998  -0.00003  -0.00009  -0.00023  -0.00032   2.11966
   A48        2.04357   0.00004   0.00008   0.00028   0.00036   2.04394
   A49        2.11329  -0.00002  -0.00001  -0.00009  -0.00010   2.11319
   A50        2.09323  -0.00004   0.00003  -0.00018  -0.00016   2.09307
   A51        2.07666   0.00006  -0.00001   0.00027   0.00026   2.07692
   A52        2.06917   0.00006   0.00002   0.00021   0.00023   2.06940
   A53        2.12716  -0.00005  -0.00002  -0.00021  -0.00023   2.12693
   A54        2.08685  -0.00000   0.00000  -0.00000  -0.00000   2.08685
   A55        2.11964  -0.00004   0.00001  -0.00021  -0.00020   2.11945
   A56        2.12003  -0.00002  -0.00009  -0.00019  -0.00028   2.11976
   A57        2.04351   0.00006   0.00008   0.00040   0.00047   2.04398
   A58        2.07659   0.00008  -0.00002   0.00034   0.00032   2.07691
   A59        2.11326  -0.00004  -0.00001  -0.00016  -0.00017   2.11309
   A60        2.09333  -0.00004   0.00003  -0.00018  -0.00015   2.09319
   A61        2.04155   0.00003   0.00003   0.00011   0.00014   2.04168
   A62        2.04422   0.00003   0.00005   0.00012   0.00018   2.04440
   A63        2.06914   0.00009   0.00002   0.00034   0.00036   2.06950
   A64        2.12705  -0.00001  -0.00003   0.00001  -0.00002   2.12703
   A65        2.08699  -0.00008   0.00001  -0.00035  -0.00034   2.08665
   A66        2.11964  -0.00001   0.00001  -0.00006  -0.00005   2.11959
   A67        2.11998  -0.00003  -0.00009  -0.00023  -0.00032   2.11966
   A68        2.04357   0.00004   0.00008   0.00028   0.00036   2.04394
   A69        2.07666   0.00006  -0.00001   0.00027   0.00026   2.07692
   A70        2.11329  -0.00002  -0.00001  -0.00009  -0.00010   2.11319
   A71        2.09323  -0.00004   0.00003  -0.00018  -0.00016   2.09307
   A72        2.08685  -0.00000  -0.00000  -0.00000  -0.00000   2.08685
   A73        2.06917   0.00006   0.00002   0.00021   0.00023   2.06940
   A74        2.12716  -0.00005  -0.00002  -0.00021  -0.00023   2.12693
   A75        2.11964  -0.00004   0.00001  -0.00021  -0.00020   2.11945
   A76        2.12003  -0.00002  -0.00009  -0.00019  -0.00028   2.11976
   A77        2.04351   0.00006   0.00008   0.00040   0.00047   2.04398
   A78        2.11326  -0.00004  -0.00001  -0.00016  -0.00017   2.11309
   A79        2.09333  -0.00004   0.00003  -0.00018  -0.00015   2.09319
   A80        2.07659   0.00008  -0.00002   0.00034   0.00032   2.07691
   A81        2.04144   0.00005   0.00003   0.00021   0.00024   2.04168
   A82        2.04407   0.00008   0.00005   0.00033   0.00037   2.04444
   A83        2.11955  -0.00002   0.00001  -0.00010  -0.00008   2.11946
   A84        2.04354   0.00005   0.00008   0.00034   0.00042   2.04396
   A85        2.12010  -0.00003  -0.00009  -0.00024  -0.00033   2.11976
   A86        2.07689  -0.00001  -0.00002  -0.00002  -0.00004   2.07686
   A87        2.11321  -0.00003  -0.00001  -0.00011  -0.00012   2.11309
   A88        2.09308   0.00003   0.00003   0.00013   0.00016   2.09324
   A89        2.12712  -0.00005  -0.00003  -0.00018  -0.00021   2.12692
   A90        2.06933  -0.00001   0.00002  -0.00006  -0.00003   2.06930
   A91        2.08673   0.00006   0.00000   0.00024   0.00024   2.08697
   A92        2.09306   0.00004   0.00002   0.00020   0.00022   2.09328
   A93        2.11322   0.00002  -0.00001   0.00009   0.00008   2.11329
   A94        2.07691  -0.00007  -0.00001  -0.00029  -0.00030   2.07662
   A95        2.08687   0.00001  -0.00000   0.00004   0.00004   2.08691
   A96        2.12696  -0.00000  -0.00003  -0.00000  -0.00003   2.12693
   A97        2.06935  -0.00001   0.00003  -0.00004  -0.00000   2.06934
   A98        2.11953   0.00002   0.00001   0.00011   0.00012   2.11965
   A99        2.12006  -0.00005  -0.00008  -0.00036  -0.00044   2.11961
   A100       2.04360   0.00003   0.00007   0.00025   0.00032   2.04392
   A101       2.11954   0.00001   0.00001   0.00008   0.00009   2.11963
   A102       2.04347   0.00004   0.00007   0.00027   0.00034   2.04381
   A103       2.12018  -0.00005  -0.00008  -0.00035  -0.00043   2.11975
   A104       2.07684  -0.00005  -0.00001  -0.00022  -0.00023   2.07662
   A105       2.11325   0.00000  -0.00002   0.00001  -0.00000   2.11325
   A106       2.09309   0.00005   0.00002   0.00020   0.00023   2.09331
   A107       2.12707  -0.00004  -0.00003  -0.00017  -0.00020   2.12688
   A108       2.06943  -0.00003   0.00003  -0.00011  -0.00008   2.06936
   A109       2.08668   0.00007   0.00000   0.00027   0.00028   2.08695
   A110       2.09301   0.00003   0.00003   0.00012   0.00015   2.09316
   A111       2.11328  -0.00001  -0.00001  -0.00006  -0.00007   2.11321
   A112       2.07689  -0.00001  -0.00002  -0.00006  -0.00008   2.07682
   A113       2.08680  -0.00003   0.00001  -0.00016  -0.00015   2.08665
   A114       2.12702   0.00001  -0.00003   0.00009   0.00006   2.12707
   A115       2.06936   0.00002   0.00003   0.00007   0.00010   2.06946
   A116       2.11951   0.00002   0.00001   0.00010   0.00011   2.11962
   A117       2.12030  -0.00006  -0.00009  -0.00044  -0.00052   2.11978
   A118       2.04338   0.00005   0.00007   0.00034   0.00041   2.04379
   A119       2.04432   0.00000   0.00006  -0.00003   0.00002   2.04434
   A120       2.04160   0.00001   0.00003   0.00004   0.00007   2.04167
    D1       -0.00000   0.00000   0.00000   0.00000   0.00000  -0.00000
    D2        3.14159   0.00000   0.00000   0.00000   0.00000   3.14159
    D3        3.14159   0.00000   0.00000   0.00000   0.00000   3.14159
    D4       -0.00000   0.00000   0.00000   0.00000   0.00000  -0.00000
    D5        0.00000  -0.00000  -0.00000  -0.00000  -0.00000   0.00000
    D6       -3.14159  -0.00000   0.00000  -0.00000  -0.00000   3.14159
    D7       -3.14159  -0.00000  -0.00000  -0.00000  -0.00000  -3.14159
    D8        0.00000  -0.00000  -0.00000  -0.00000  -0.00000   0.00000
    D9       -3.14159  -0.00000  -0.00000  -0.00000  -0.00000  -3.14159
   D10        0.00000  -0.00000  -0.00000  -0.00000  -0.00000  -0.00000
   D11       -0.00000   0.00000   0.00000   0.00000   0.00000  -0.00000
   D12        3.14159  -0.00000   0.00000   0.00000   0.00000   3.14159
   D13        3.14159   0.00000  -0.00000   0.00000   0.00000  -3.14159
   D14       -0.00000  -0.00000   0.00000  -0.00000  -0.00000  -0.00000
   D15        0.00000  -0.00000   0.00000  -0.00000  -0.00000   0.00000
   D16       -3.14159  -0.00000  -0.00000  -0.00000  -0.00000  -3.14159
   D17        3.14159  -0.00000   0.00000   0.00000   0.00000   3.14159
   D18        0.00000  -0.00000   0.00000  -0.00000  -0.00000   0.00000
   D19        0.00000  -0.00000  -0.00000  -0.00000  -0.00000   0.00000
   D20       -3.14159  -0.00000  -0.00000  -0.00000  -0.00000  -3.14159
   D21        0.00000  -0.00000   0.00000  -0.00000  -0.00000   0.00000
   D22        3.14159  -0.00000   0.00000  -0.00000   0.00000   3.14159
   D23       -3.14159  -0.00000  -0.00000  -0.00000  -0.00000  -3.14159
   D24       -0.00000   0.00000   0.00000   0.00000   0.00000   0.00000
   D25        0.00000  -0.00000  -0.00000  -0.00000  -0.00000   0.00000
   D26       -3.14159   0.00000  -0.00000   0.00000  -0.00000  -3.14159
   D27       -3.14159  -0.00000  -0.00000  -0.00000  -0.00000   3.14159
   D28        0.00000   0.00000  -0.00000  -0.00000  -0.00000   0.00000
   D29        0.00000  -0.00000  -0.00000  -0.00000  -0.00000   0.00000
   D30       -3.14159  -0.00000  -0.00000  -0.00000  -0.00000  -3.14159
   D31       -3.14159  -0.00000  -0.00000  -0.00000  -0.00000  -3.14159
   D32        0.00000  -0.00000  -0.00000  -0.00000  -0.00000   0.00000
   D33        0.00000  -0.00000  -0.00000  -0.00000  -0.00000  -0.00000
   D34       -3.14159  -0.00000   0.00000  -0.00000  -0.00000  -3.14159
   D35       -3.14159  -0.00000  -0.00000  -0.00000  -0.00000   3.14159
   D36        0.00000  -0.00000   0.00000  -0.00000  -0.00000   0.00000
   D37        0.00000  -0.00000  -0.00000  -0.00000  -0.00000  -0.00000
   D38       -3.14159  -0.00000   0.00000  -0.00000  -0.00000   3.14159
   D39       -3.14159  -0.00000  -0.00000  -0.00000  -0.00000  -3.14159
   D40        0.00000   0.00000  -0.00000   0.00000  -0.00000   0.00000
   D41       -0.00000   0.00000   0.00000   0.00000   0.00000  -0.00000
   D42        3.14159   0.00000   0.00000   0.00000   0.00000   3.14159
   D43        3.14159   0.00000   0.00000   0.00000   0.00000   3.14159
   D44       -0.00000   0.00000   0.00000   0.00000   0.00000  -0.00000
   D45        0.00000  -0.00000  -0.00000  -0.00000  -0.00000   0.00000
   D46       -3.14159  -0.00000  -0.00000  -0.00000  -0.00000  -3.14159
   D47       -0.00000   0.00000   0.00000   0.00000   0.00000  -0.00000
   D48        3.14159   0.00000   0.00000   0.00000   0.00000   3.14159
   D49        3.14159   0.00000  -0.00000  -0.00000  -0.00000   3.14159
   D50       -0.00000   0.00000   0.00000   0.00000   0.00000  -0.00000
   D51       -0.00000   0.00000   0.00000   0.00000   0.00000   0.00000
   D52       -3.14159  -0.00000  -0.00000  -0.00000  -0.00000  -3.14159
   D53        3.14159   0.00000   0.00000   0.00000   0.00000  -3.14159
   D54       -0.00000   0.00000   0.00000   0.00000   0.00000   0.00000
   D55        0.00000  -0.00000  -0.00000  -0.00000  -0.00000   0.00000
   D56       -3.14159  -0.00000  -0.00000  -0.00000  -0.00000  -3.14159
   D57        3.14159   0.00000   0.00000   0.00000   0.00000  -3.14159
   D58       -0.00000   0.00000   0.00000   0.00000   0.00000   0.00000
   D59       -0.00000   0.00000   0.00000   0.00000   0.00000  -0.00000
   D60        3.14159   0.00000   0.00000   0.00000   0.00000   3.14159
   D61       -0.00000   0.00000   0.00000   0.00000   0.00000   0.00000
   D62        3.14159   0.00000   0.00000   0.00000   0.00000   3.14159
   D63       -0.00000   0.00000   0.00000   0.00000   0.00000   0.00000
   D64        3.14159   0.00000   0.00000   0.00000   0.00000   3.14159
   D65        3.14159   0.00000   0.00000   0.00000   0.00000   3.14159
   D66       -0.00000   0.00000   0.00000  -0.00000   0.00000  -0.00000
   D67       -3.14159  -0.00000  -0.00000  -0.00000  -0.00000  -3.14159
   D68        0.00000  -0.00000  -0.00000  -0.00000  -0.00000  -0.00000
   D69        0.00000  -0.00000   0.00000  -0.00000  -0.00000   0.00000
   D70       -3.14159  -0.00000  -0.00000  -0.00000  -0.00000  -3.14159
   D71       -0.00000   0.00000   0.00000   0.00000   0.00000  -0.00000
   D72        3.14159   0.00000   0.00000   0.00000   0.00000   3.14159
   D73       -3.14159  -0.00000  -0.00000  -0.00000  -0.00000   3.14159
   D74       -0.00000   0.00000  -0.00000   0.00000  -0.00000  -0.00000
   D75        0.00000  -0.00000  -0.00000  -0.00000  -0.00000  -0.00000
   D76        3.14159   0.00000  -0.00000   0.00000   0.00000   3.14159
   D77       -0.00000   0.00000   0.00000   0.00000   0.00000   0.00000
   D78        3.14159   0.00000   0.00000   0.00000   0.00000  -3.14159
   D79       -3.14159  -0.00000   0.00000  -0.00000  -0.00000  -3.14159
   D80        0.00000  -0.00000   0.00000  -0.00000  -0.00000   0.00000
   D81       -3.14159  -0.00000  -0.00000  -0.00000  -0.00000   3.14159
   D82        0.00000  -0.00000  -0.00000  -0.00000  -0.00000  -0.00000
   D83       -0.00000   0.00000   0.00000   0.00000   0.00000   0.00000
   D84        3.14159   0.00000   0.00000   0.00000   0.00000  -3.14159
   D85       -3.14159  -0.00000  -0.00000  -0.00000  -0.00000   3.14159
   D86       -0.00000   0.00000  -0.00000   0.00000   0.00000  -0.00000
   D87        0.00000  -0.00000  -0.00000  -0.00000  -0.00000  -0.00000
   D88       -3.14159  -0.00000  -0.00000  -0.00000  -0.00000   3.14159
   D89       -3.14159  -0.00000  -0.00000  -0.00000  -0.00000   3.14159
   D90        0.00000  -0.00000  -0.00000  -0.00000  -0.00000   0.00000
   D91       -0.00000   0.00000  -0.00000   0.00000   0.00000   0.00000
   D92       -3.14159  -0.00000  -0.00000  -0.00000  -0.00000   3.14159
   D93        3.14159   0.00000  -0.00000   0.00000   0.00000  -3.14159
   D94        0.00000  -0.00000  -0.00000  -0.00000  -0.00000  -0.00000
   D95        3.14159   0.00000   0.00000   0.00000   0.00000  -3.14159
   D96       -0.00000  -0.00000   0.00000   0.00000   0.00000   0.00000
   D97       -0.00000   0.00000   0.00000   0.00000   0.00000   0.00000
   D98       -3.14159  -0.00000   0.00000  -0.00000   0.00000  -3.14159
   D99       -0.00000   0.00000   0.00000   0.00000   0.00000  -0.00000
   D100       3.14159   0.00000   0.00000   0.00000   0.00000   3.14159
   D101      -3.14159  -0.00000  -0.00000  -0.00000  -0.00000   3.14159
   D102       0.00000  -0.00000  -0.00000  -0.00000  -0.00000  -0.00000
   D103      -0.00000   0.00000   0.00000   0.00000   0.00000  -0.00000
   D104       3.14159   0.00000   0.00000   0.00000   0.00000   3.14159
   D105       3.14159   0.00000   0.00000   0.00000   0.00000   3.14159
   D106      -0.00000  -0.00000  -0.00000  -0.00000  -0.00000  -0.00000
   D107      -0.00000   0.00000  -0.00000   0.00000   0.00000  -0.00000
   D108      -3.14159  -0.00000  -0.00000  -0.00000  -0.00000   3.14159
   D109       0.00000  -0.00000   0.00000  -0.00000  -0.00000   0.00000
   D110      -3.14159  -0.00000   0.00000  -0.00000  -0.00000  -3.14159
   D111       3.14159   0.00000   0.00000   0.00000   0.00000   3.14159
   D112      -0.00000   0.00000   0.00000   0.00000   0.00000   0.00000
   D113      -0.00000   0.00000  -0.00000   0.00000   0.00000  -0.00000
   D114       3.14159   0.00000   0.00000   0.00000   0.00000   3.14159
   D115      -3.14159  -0.00000  -0.00000  -0.00000  -0.00000   3.14159
   D116      -0.00000   0.00000  -0.00000   0.00000   0.00000  -0.00000
   D117      -3.14159  -0.00000  -0.00000  -0.00000  -0.00000  -3.14159
   D118       0.00000  -0.00000  -0.00000  -0.00000  -0.00000  -0.00000
   D119       0.00000  -0.00000  -0.00000  -0.00000  -0.00000   0.00000
   D120      -3.14159  -0.00000  -0.00000  -0.00000  -0.00000  -3.14159
   D121       0.00000  -0.00000  -0.00000  -0.00000  -0.00000   0.00000
   D122       3.14159   0.00000  -0.00000   0.00000   0.00000  -3.14159
   D123      -3.14159  -0.00000  -0.00000  -0.00000  -0.00000   3.14159
   D124       0.00000   0.00000  -0.00000   0.00000   0.00000   0.00000
   D125      -0.00000   0.00000   0.00000   0.00000   0.00000  -0.00000
   D126       3.14159  -0.00000   0.00000   0.00000   0.00000   3.14159
   D127       3.14159   0.00000   0.00000   0.00000   0.00000  -3.14159
   D128      -0.00000   0.00000   0.00000   0.00000   0.00000   0.00000
   D129       0.00000  -0.00000  -0.00000  -0.00000  -0.00000   0.00000
   D130      -3.14159  -0.00000  -0.00000  -0.00000  -0.00000   3.14159
   D131       3.14159   0.00000   0.00000   0.00000   0.00001   3.14159
   D132      -0.00000   0.00000   0.00000   0.00000   0.00000  -0.00000
   D133       3.14159   0.00000   0.00000   0.00000   0.00000  -3.14159
   D134      -0.00000   0.00000   0.00000   0.00000   0.00000  -0.00000
   D135       0.00000  -0.00000  -0.00000  -0.00000  -0.00000   0.00000
   D136      -3.14159  -0.00000  -0.00000  -0.00000  -0.00000  -3.14159
   D137      -3.14159  -0.00000  -0.00000  -0.00000  -0.00000   3.14159
   D138       0.00000  -0.00000  -0.00000  -0.00000  -0.00000   0.00000
   D139       0.00000  -0.00000  -0.00000  -0.00000  -0.00000  -0.00000
   D140      -3.14159   0.00000  -0.00000  -0.00000  -0.00000  -3.14159
   D141       0.00000  -0.00000  -0.00000  -0.00000  -0.00000  -0.00000
   D142      -3.14159  -0.00000   0.00000  -0.00000  -0.00000  -3.14159
   D143      -3.14159  -0.00000  -0.00000  -0.00000  -0.00000  -3.14159
   D144       0.00000  -0.00000   0.00000  -0.00000  -0.00000   0.00000
   D145       0.00000  -0.00000  -0.00000  -0.00000  -0.00000  -0.00000
   D146      -3.14159  -0.00000  -0.00000  -0.00000  -0.00000   3.14159
   D147      -3.14159  -0.00000  -0.00000  -0.00000  -0.00000   3.14159
   D148      -0.00000   0.00000  -0.00000   0.00000  -0.00000  -0.00000
   D149      -0.00000   0.00000   0.00000   0.00000   0.00000   0.00000
   D150       3.14159   0.00000   0.00000   0.00000   0.00000  -3.14159
   D151       3.14159   0.00000   0.00000   0.00000   0.00000   3.14159
   D152      -0.00000   0.00000   0.00000   0.00000   0.00000  -0.00000
   D153       0.00000  -0.00000  -0.00000  -0.00000  -0.00000   0.00000
   D154      -3.14159  -0.00000  -0.00000  -0.00000  -0.00000  -3.14159
   D155      -0.00000   0.00000  -0.00000   0.00000   0.00000   0.00000
   D156      -3.14159  -0.00000   0.00000  -0.00000  -0.00000   3.14159
   D157       3.14159   0.00000   0.00000   0.00000   0.00000   3.14159
   D158      -0.00000   0.00000   0.00000   0.00000   0.00000  -0.00000
   D159       3.14159   0.00000   0.00000   0.00000   0.00000  -3.14159
   D160      -0.00000   0.00000   0.00000   0.00000   0.00000   0.00000
   D161       0.00000   0.00000   0.00000   0.00000   0.00000   0.00000
   D162      -3.14159  -0.00000  -0.00000  -0.00000  -0.00000  -3.14159
   D163       3.14159   0.00000   0.00000   0.00000   0.00000   3.14159
   D164      -0.00000   0.00000   0.00000   0.00000   0.00000  -0.00000
   D165      -0.00000   0.00000   0.00000   0.00000   0.00000  -0.00000
   D166       3.14159   0.00000   0.00000   0.00000   0.00000   3.14159
   D167       0.00000  -0.00000   0.00000  -0.00000  -0.00000   0.00000
   D168      -3.14159  -0.00000  -0.00000  -0.00000  -0.00000  -3.14159
   D169      -3.14159  -0.00000   0.00000  -0.00000  -0.00000  -3.14159
   D170       0.00000  -0.00000  -0.00000  -0.00000  -0.00000   0.00000
   D171      -0.00000   0.00000   0.00000   0.00000   0.00000  -0.00000
   D172       3.14159   0.00000   0.00000   0.00000   0.00000   3.14159
   D173       3.14159   0.00000  -0.00000   0.00000   0.00000   3.14159
   D174      -0.00000   0.00000  -0.00000   0.00000   0.00000  -0.00000
   D175      -3.14159  -0.00000  -0.00000  -0.00000  -0.00000  -3.14159
   D176       0.00000  -0.00000  -0.00000  -0.00000  -0.00000  -0.00000
   D177       0.00000  -0.00000  -0.00000  -0.00000  -0.00000   0.00000
   D178       3.14159  -0.00000   0.00000  -0.00000   0.00000   3.14159
   D179       0.00000  -0.00000  -0.00000  -0.00000  -0.00000   0.00000
   D180      -3.14159  -0.00000  -0.00000  -0.00000  -0.00000  -3.14159
   D181       0.00000  -0.00000   0.00000  -0.00000  -0.00000   0.00000
   D182       3.14159  -0.00000   0.00000  -0.00000  -0.00000   3.14159
   D183      -3.14159   0.00000  -0.00000   0.00000  -0.00000  -3.14159
   D184      -0.00000   0.00000  -0.00000   0.00000   0.00000   0.00000
   D185       0.00000  -0.00000  -0.00000  -0.00000  -0.00000   0.00000
   D186      -3.14159  -0.00000  -0.00000  -0.00000  -0.00000  -3.14159
   D187      -3.14159  -0.00000  -0.00000  -0.00000  -0.00000  -3.14159
   D188       0.00000  -0.00000  -0.00000  -0.00000  -0.00000   0.00000
   D189      -0.00000   0.00000   0.00000   0.00000   0.00000   0.00000
   D190       3.14159   0.00000   0.00000   0.00000   0.00000  -3.14159
   D191      -0.00000   0.00000   0.00000   0.00000   0.00000   0.00000
   D192       3.14159   0.00000   0.00000   0.00000   0.00000   3.14159
         Item               Value     Threshold  Converged?
 Maximum Force            0.000101     0.000450     YES
 RMS     Force            0.000030     0.000300     YES
 Maximum Displacement     0.001206     0.001800     YES
 RMS     Displacement     0.000219     0.001200     YES
 Predicted change in Energy=-7.077647D-07
 Optimization completed.
    -- Stationary point found.
                           ----------------------------
                           !   Optimized Parameters   !
                           ! (Angstroms and Degrees)  !
 --------------------------                            --------------------------
 ! Name  Definition              Value          Derivative Info.                !
 --------------------------------------------------------------------------------
 ! R1    R(1,10)                 1.4445         -DE/DX =    0.0                 !
 ! R2    R(1,12)                 1.4305         -DE/DX =    0.0                 !
 ! R3    R(1,18)                 1.3447         -DE/DX =    0.0                 !
 ! R4    R(2,11)                 1.4305         -DE/DX =   -0.0001              !
 ! R5    R(2,12)                 1.4573         -DE/DX =    0.0                 !
 ! R6    R(2,14)                 1.3309         -DE/DX =    0.0                 !
 ! R7    R(3,10)                 1.3621         -DE/DX =    0.0001              !
 ! R8    R(3,11)                 1.4444         -DE/DX =    0.0                 !
 ! R9    R(3,53)                 1.0851         -DE/DX =    0.0                 !
 ! R10   R(4,7)                  1.4445         -DE/DX =    0.0                 !
 ! R11   R(4,9)                  1.3621         -DE/DX =    0.0001              !
 ! R12   R(4,51)                 1.0852         -DE/DX =    0.0                 !
 ! R13   R(5,8)                  1.4305         -DE/DX =    0.0                 !
 ! R14   R(5,9)                  1.4444         -DE/DX =    0.0001              !
 ! R15   R(5,13)                 1.3447         -DE/DX =    0.0                 !
 ! R16   R(6,7)                  1.4305         -DE/DX =    0.0                 !
 ! R17   R(6,8)                  1.4574         -DE/DX =    0.0                 !
 ! R18   R(6,15)                 1.331          -DE/DX =   -0.0001              !
 ! R19   R(7,17)                 1.3448         -DE/DX =    0.0                 !
 ! R20   R(8,14)                 1.3309         -DE/DX =    0.0                 !
 ! R21   R(9,52)                 1.0851         -DE/DX =    0.0                 !
 ! R22   R(10,54)                1.0852         -DE/DX =    0.0                 !
 ! R23   R(11,13)                1.3447         -DE/DX =    0.0                 !
 ! R24   R(12,16)                1.331          -DE/DX =   -0.0001              !
 ! R25   R(15,22)                1.331          -DE/DX =    0.0                 !
 ! R26   R(16,27)                1.3309         -DE/DX =    0.0                 !
 ! R27   R(17,21)                1.3448         -DE/DX =   -0.0001              !
 ! R28   R(18,32)                1.3448         -DE/DX =   -0.0001              !
 ! R29   R(19,22)                1.4574         -DE/DX =    0.0                 !
 ! R30   R(19,24)                1.4305         -DE/DX =    0.0                 !
 ! R31   R(19,26)                1.3309         -DE/DX =    0.0                 !
 ! R32   R(20,23)                1.3621         -DE/DX =    0.0                 !
 ! R33   R(20,24)                1.4444         -DE/DX =    0.0                 !
 ! R34   R(20,50)                1.0851         -DE/DX =    0.0                 !
 ! R35   R(21,22)                1.4304         -DE/DX =    0.0001              !
 ! R36   R(21,23)                1.4445         -DE/DX =    0.0                 !
 ! R37   R(23,49)                1.0851         -DE/DX =    0.0                 !
 ! R38   R(24,25)                1.3448         -DE/DX =   -0.0001              !
 ! R39   R(25,38)                1.3447         -DE/DX =    0.0                 !
 ! R40   R(26,43)                1.331          -DE/DX =   -0.0001              !
 ! R41   R(27,30)                1.4574         -DE/DX =    0.0                 !
 ! R42   R(27,32)                1.4305         -DE/DX =    0.0                 !
 ! R43   R(28,31)                1.3621         -DE/DX =    0.0                 !
 ! R44   R(28,32)                1.4444         -DE/DX =    0.0                 !
 ! R45   R(28,55)                1.0851         -DE/DX =    0.0                 !
 ! R46   R(29,30)                1.4304         -DE/DX =    0.0001              !
 ! R47   R(29,31)                1.4445         -DE/DX =    0.0                 !
 ! R48   R(29,33)                1.3448         -DE/DX =   -0.0001              !
 ! R49   R(30,34)                1.331          -DE/DX =    0.0                 !
 ! R50   R(31,56)                1.0851         -DE/DX =    0.0                 !
 ! R51   R(33,44)                1.3448         -DE/DX =    0.0                 !
 ! R52   R(34,37)                1.331          -DE/DX =   -0.0001              !
 ! R53   R(35,44)                1.4445         -DE/DX =    0.0                 !
 ! R54   R(35,46)                1.3621         -DE/DX =    0.0001              !
 ! R55   R(35,57)                1.0852         -DE/DX =    0.0                 !
 ! R56   R(36,45)                1.4305         -DE/DX =    0.0                 !
 ! R57   R(36,46)                1.4444         -DE/DX =    0.0001              !
 ! R58   R(36,48)                1.3447         -DE/DX =    0.0                 !
 ! R59   R(37,44)                1.4305         -DE/DX =    0.0                 !
 ! R60   R(37,45)                1.4574         -DE/DX =    0.0                 !
 ! R61   R(38,41)                1.4445         -DE/DX =    0.0                 !
 ! R62   R(38,43)                1.4305         -DE/DX =    0.0                 !
 ! R63   R(39,42)                1.4305         -DE/DX =   -0.0001              !
 ! R64   R(39,43)                1.4573         -DE/DX =    0.0                 !
 ! R65   R(39,47)                1.3309         -DE/DX =    0.0                 !
 ! R66   R(40,41)                1.3621         -DE/DX =    0.0001              !
 ! R67   R(40,42)                1.4444         -DE/DX =    0.0                 !
 ! R68   R(40,59)                1.0851         -DE/DX =    0.0                 !
 ! R69   R(41,60)                1.0852         -DE/DX =    0.0                 !
 ! R70   R(42,48)                1.3447         -DE/DX =    0.0                 !
 ! R71   R(45,47)                1.3309         -DE/DX =    0.0                 !
 ! R72   R(46,58)                1.0851         -DE/DX =    0.0                 !
 ! A1    A(10,1,12)            118.9984         -DE/DX =   -0.0001              !
 ! A2    A(10,1,18)            119.9232         -DE/DX =    0.0                 !
 ! A3    A(12,1,18)            121.0783         -DE/DX =    0.0                 !
 ! A4    A(11,2,12)            119.569          -DE/DX =    0.0                 !
 ! A5    A(11,2,14)            121.8661         -DE/DX =    0.0                 !
 ! A6    A(12,2,14)            118.5648         -DE/DX =    0.0                 !
 ! A7    A(10,3,11)            121.4399         -DE/DX =    0.0                 !
 ! A8    A(10,3,53)            121.4704         -DE/DX =   -0.0001              !
 ! A9    A(11,3,53)            117.0896         -DE/DX =    0.0                 !
 ! A10   A(7,4,9)              121.4411         -DE/DX =    0.0                 !
 ! A11   A(7,4,51)             117.0863         -DE/DX =    0.0001              !
 ! A12   A(9,4,51)             121.4726         -DE/DX =    0.0                 !
 ! A13   A(8,5,9)              118.9972         -DE/DX =    0.0                 !
 ! A14   A(8,5,13)             121.0782         -DE/DX =    0.0                 !
 ! A15   A(9,5,13)             119.9245         -DE/DX =    0.0                 !
 ! A16   A(7,6,8)              119.5606         -DE/DX =    0.0001              !
 ! A17   A(7,6,15)             121.8753         -DE/DX =    0.0                 !
 ! A18   A(8,6,15)             118.5641         -DE/DX =    0.0                 !
 ! A19   A(4,7,6)              118.9972         -DE/DX =    0.0                 !
 ! A20   A(4,7,17)             119.9207         -DE/DX =    0.0                 !
 ! A21   A(6,7,17)             121.0822         -DE/DX =    0.0                 !
 ! A22   A(5,8,6)              119.5651         -DE/DX =    0.0                 !
 ! A23   A(5,8,14)             121.8691         -DE/DX =    0.0                 !
 ! A24   A(6,8,14)             118.5658         -DE/DX =    0.0                 !
 ! A25   A(4,9,5)              121.4388         -DE/DX =    0.0                 !
 ! A26   A(4,9,52)             121.4844         -DE/DX =   -0.0001              !
 ! A27   A(5,9,52)             117.0768         -DE/DX =    0.0                 !
 ! A28   A(1,10,3)             121.4404         -DE/DX =    0.0                 !
 ! A29   A(1,10,54)            117.0822         -DE/DX =    0.0                 !
 ! A30   A(3,10,54)            121.4774         -DE/DX =   -0.0001              !
 ! A31   A(2,11,3)             118.9944         -DE/DX =    0.0                 !
 ! A32   A(2,11,13)            121.0805         -DE/DX =    0.0                 !
 ! A33   A(3,11,13)            119.9251         -DE/DX =    0.0                 !
 ! A34   A(1,12,2)             119.5578         -DE/DX =    0.0001              !
 ! A35   A(1,12,16)            121.8724         -DE/DX =    0.0                 !
 ! A36   A(2,12,16)            118.5698         -DE/DX =    0.0                 !
 ! A37   A(5,13,11)            116.9752         -DE/DX =    0.0                 !
 ! A38   A(2,14,8)             117.1308         -DE/DX =    0.0                 !
 ! A39   A(6,15,22)            117.1164         -DE/DX =    0.0001              !
 ! A40   A(12,16,27)           117.125          -DE/DX =    0.0                 !
 ! A41   A(7,17,21)            116.9659         -DE/DX =    0.0001              !
 ! A42   A(1,18,32)            116.9719         -DE/DX =    0.0                 !
 ! A43   A(22,19,24)           119.5756         -DE/DX =   -0.0001              !
 ! A44   A(22,19,26)           118.5531         -DE/DX =    0.0001              !
 ! A45   A(24,19,26)           121.8712         -DE/DX =    0.0                 !
 ! A46   A(23,20,24)           121.4462         -DE/DX =    0.0                 !
 ! A47   A(23,20,50)           121.4657         -DE/DX =    0.0                 !
 ! A48   A(24,20,50)           117.0881         -DE/DX =    0.0                 !
 ! A49   A(17,21,22)           121.0828         -DE/DX =    0.0                 !
 ! A50   A(17,21,23)           119.9331         -DE/DX =    0.0                 !
 ! A51   A(22,21,23)           118.9841         -DE/DX =    0.0001              !
 ! A52   A(15,22,19)           118.5546         -DE/DX =    0.0001              !
 ! A53   A(15,22,21)           121.8775         -DE/DX =   -0.0001              !
 ! A54   A(19,22,21)           119.5678         -DE/DX =    0.0                 !
 ! A55   A(20,23,21)           121.4465         -DE/DX =    0.0                 !
 ! A56   A(20,23,49)           121.4689         -DE/DX =    0.0                 !
 ! A57   A(21,23,49)           117.0847         -DE/DX =    0.0001              !
 ! A58   A(19,24,20)           118.9798         -DE/DX =    0.0001              !
 ! A59   A(19,24,25)           121.081          -DE/DX =    0.0                 !
 ! A60   A(20,24,25)           119.9392         -DE/DX =    0.0                 !
 ! A61   A(24,25,38)           116.9719         -DE/DX =    0.0                 !
 ! A62   A(19,26,43)           117.125          -DE/DX =    0.0                 !
 ! A63   A(16,27,30)           118.5531         -DE/DX =    0.0001              !
 ! A64   A(16,27,32)           121.8712         -DE/DX =    0.0                 !
 ! A65   A(30,27,32)           119.5757         -DE/DX =   -0.0001              !
 ! A66   A(31,28,32)           121.4462         -DE/DX =    0.0                 !
 ! A67   A(31,28,55)           121.4657         -DE/DX =    0.0                 !
 ! A68   A(32,28,55)           117.088          -DE/DX =    0.0                 !
 ! A69   A(30,29,31)           118.984          -DE/DX =    0.0001              !
 ! A70   A(30,29,33)           121.0828         -DE/DX =    0.0                 !
 ! A71   A(31,29,33)           119.9331         -DE/DX =    0.0                 !
 ! A72   A(27,30,29)           119.5678         -DE/DX =    0.0                 !
 ! A73   A(27,30,34)           118.5547         -DE/DX =    0.0001              !
 ! A74   A(29,30,34)           121.8775         -DE/DX =   -0.0001              !
 ! A75   A(28,31,29)           121.4465         -DE/DX =    0.0                 !
 ! A76   A(28,31,56)           121.4689         -DE/DX =    0.0                 !
 ! A77   A(29,31,56)           117.0846         -DE/DX =    0.0001              !
 ! A78   A(18,32,27)           121.081          -DE/DX =    0.0                 !
 ! A79   A(18,32,28)           119.9392         -DE/DX =    0.0                 !
 ! A80   A(27,32,28)           118.9797         -DE/DX =    0.0001              !
 ! A81   A(29,33,44)           116.9659         -DE/DX =    0.0001              !
 ! A82   A(30,34,37)           117.1164         -DE/DX =    0.0001              !
 ! A83   A(44,35,46)           121.441          -DE/DX =    0.0                 !
 ! A84   A(44,35,57)           117.0863         -DE/DX =    0.0001              !
 ! A85   A(46,35,57)           121.4727         -DE/DX =    0.0                 !
 ! A86   A(45,36,46)           118.9973         -DE/DX =    0.0                 !
 ! A87   A(45,36,48)           121.0782         -DE/DX =    0.0                 !
 ! A88   A(46,36,48)           119.9245         -DE/DX =    0.0                 !
 ! A89   A(34,37,44)           121.8753         -DE/DX =    0.0                 !
 ! A90   A(34,37,45)           118.5641         -DE/DX =    0.0                 !
 ! A91   A(44,37,45)           119.5606         -DE/DX =    0.0001              !
 ! A92   A(25,38,41)           119.9232         -DE/DX =    0.0                 !
 ! A93   A(25,38,43)           121.0784         -DE/DX =    0.0                 !
 ! A94   A(41,38,43)           118.9984         -DE/DX =   -0.0001              !
 ! A95   A(42,39,43)           119.569          -DE/DX =    0.0                 !
 ! A96   A(42,39,47)           121.8661         -DE/DX =    0.0                 !
 ! A97   A(43,39,47)           118.5649         -DE/DX =    0.0                 !
 ! A98   A(41,40,42)           121.44           -DE/DX =    0.0                 !
 ! A99   A(41,40,59)           121.4705         -DE/DX =   -0.0001              !
 ! A100  A(42,40,59)           117.0896         -DE/DX =    0.0                 !
 ! A101  A(38,41,40)           121.4404         -DE/DX =    0.0                 !
 ! A102  A(38,41,60)           117.0822         -DE/DX =    0.0                 !
 ! A103  A(40,41,60)           121.4774         -DE/DX =   -0.0001              !
 ! A104  A(39,42,40)           118.9944         -DE/DX =    0.0                 !
 ! A105  A(39,42,48)           121.0805         -DE/DX =    0.0                 !
 ! A106  A(40,42,48)           119.9251         -DE/DX =    0.0                 !
 ! A107  A(26,43,38)           121.8724         -DE/DX =    0.0                 !
 ! A108  A(26,43,39)           118.5698         -DE/DX =    0.0                 !
 ! A109  A(38,43,39)           119.5578         -DE/DX =    0.0001              !
 ! A110  A(33,44,35)           119.9206         -DE/DX =    0.0                 !
 ! A111  A(33,44,37)           121.0821         -DE/DX =    0.0                 !
 ! A112  A(35,44,37)           118.9973         -DE/DX =    0.0                 !
 ! A113  A(36,45,37)           119.5651         -DE/DX =    0.0                 !
 ! A114  A(36,45,47)           121.8691         -DE/DX =    0.0                 !
 ! A115  A(37,45,47)           118.5658         -DE/DX =    0.0                 !
 ! A116  A(35,46,36)           121.4387         -DE/DX =    0.0                 !
 ! A117  A(35,46,58)           121.4844         -DE/DX =   -0.0001              !
 ! A118  A(36,46,58)           117.0769         -DE/DX =    0.0                 !
 ! A119  A(39,47,45)           117.1308         -DE/DX =    0.0                 !
 ! A120  A(36,48,42)           116.9752         -DE/DX =    0.0                 !
 ! D1    D(12,1,10,3)           -0.0001         -DE/DX =    0.0                 !
 ! D2    D(12,1,10,54)         179.9999         -DE/DX =    0.0                 !
 ! D3    D(18,1,10,3)          179.9998         -DE/DX =    0.0                 !
 ! D4    D(18,1,10,54)          -0.0001         -DE/DX =    0.0                 !
 ! D5    D(10,1,12,2)            0.0001         -DE/DX =    0.0                 !
 ! D6    D(10,1,12,16)         180.0            -DE/DX =    0.0                 !
 ! D7    D(18,1,12,2)         -179.9999         -DE/DX =    0.0                 !
 ! D8    D(18,1,12,16)           0.0            -DE/DX =    0.0                 !
 ! D9    D(10,1,18,32)        -179.9999         -DE/DX =    0.0                 !
 ! D10   D(12,1,18,32)           0.0001         -DE/DX =    0.0                 !
 ! D11   D(12,2,11,3)           -0.0001         -DE/DX =    0.0                 !
 ! D12   D(12,2,11,13)         179.9999         -DE/DX =    0.0                 !
 ! D13   D(14,2,11,3)         -180.0            -DE/DX =    0.0                 !
 ! D14   D(14,2,11,13)           0.0            -DE/DX =    0.0                 !
 ! D15   D(11,2,12,1)            0.0            -DE/DX =    0.0                 !
 ! D16   D(11,2,12,16)        -179.9999         -DE/DX =    0.0                 !
 ! D17   D(14,2,12,1)          179.9999         -DE/DX =    0.0                 !
 ! D18   D(14,2,12,16)           0.0            -DE/DX =    0.0                 !
 ! D19   D(11,2,14,8)            0.0001         -DE/DX =    0.0                 !
 ! D20   D(12,2,14,8)         -179.9998         -DE/DX =    0.0                 !
 ! D21   D(11,3,10,1)            0.0            -DE/DX =    0.0                 !
 ! D22   D(11,3,10,54)         180.0            -DE/DX =    0.0                 !
 ! D23   D(53,3,10,1)         -180.0            -DE/DX =    0.0                 !
 ! D24   D(53,3,10,54)           0.0            -DE/DX =    0.0                 !
 ! D25   D(10,3,11,2)            0.0001         -DE/DX =    0.0                 !
 ! D26   D(10,3,11,13)        -179.9999         -DE/DX =    0.0                 !
 ! D27   D(53,3,11,2)          180.0001         -DE/DX =    0.0                 !
 ! D28   D(53,3,11,13)           0.0001         -DE/DX =    0.0                 !
 ! D29   D(9,4,7,6)              0.0002         -DE/DX =    0.0                 !
 ! D30   D(9,4,7,17)          -179.9998         -DE/DX =    0.0                 !
 ! D31   D(51,4,7,6)          -179.9999         -DE/DX =    0.0                 !
 ! D32   D(51,4,7,17)            0.0001         -DE/DX =    0.0                 !
 ! D33   D(7,4,9,5)              0.0            -DE/DX =    0.0                 !
 ! D34   D(7,4,9,52)          -180.0            -DE/DX =    0.0                 !
 ! D35   D(51,4,9,5)           180.0001         -DE/DX =    0.0                 !
 ! D36   D(51,4,9,52)            0.0001         -DE/DX =    0.0                 !
 ! D37   D(9,5,8,6)              0.0002         -DE/DX =    0.0                 !
 ! D38   D(9,5,8,14)           180.0001         -DE/DX =    0.0                 !
 ! D39   D(13,5,8,6)          -179.9999         -DE/DX =    0.0                 !
 ! D40   D(13,5,8,14)            0.0            -DE/DX =    0.0                 !
 ! D41   D(8,5,9,4)             -0.0002         -DE/DX =    0.0                 !
 ! D42   D(8,5,9,52)           179.9998         -DE/DX =    0.0                 !
 ! D43   D(13,5,9,4)           179.9999         -DE/DX =    0.0                 !
 ! D44   D(13,5,9,52)           -0.0001         -DE/DX =    0.0                 !
 ! D45   D(8,5,13,11)            0.0001         -DE/DX =    0.0                 !
 ! D46   D(9,5,13,11)         -179.9999         -DE/DX =    0.0                 !
 ! D47   D(8,6,7,4)             -0.0002         -DE/DX =    0.0                 !
 ! D48   D(8,6,7,17)           179.9998         -DE/DX =    0.0                 !
 ! D49   D(15,6,7,4)           180.0            -DE/DX =    0.0                 !
 ! D50   D(15,6,7,17)           -0.0001         -DE/DX =    0.0                 !
 ! D51   D(7,6,8,5)              0.0            -DE/DX =    0.0                 !
 ! D52   D(7,6,8,14)          -179.9999         -DE/DX =    0.0                 !
 ! D53   D(15,6,8,5)          -180.0002         -DE/DX =    0.0                 !
 ! D54   D(15,6,8,14)            0.0            -DE/DX =    0.0                 !
 ! D55   D(7,6,15,22)            0.0001         -DE/DX =    0.0                 !
 ! D56   D(8,6,15,22)         -179.9997         -DE/DX =    0.0                 !
 ! D57   D(4,7,17,21)         -180.0001         -DE/DX =    0.0                 !
 ! D58   D(6,7,17,21)           -0.0001         -DE/DX =    0.0                 !
 ! D59   D(5,8,14,2)            -0.0001         -DE/DX =    0.0                 !
 ! D60   D(6,8,14,2)           179.9997         -DE/DX =    0.0                 !
 ! D61   D(2,11,13,5)           -0.0001         -DE/DX =    0.0                 !
 ! D62   D(3,11,13,5)          179.9999         -DE/DX =    0.0                 !
 ! D63   D(1,12,16,27)          -0.0001         -DE/DX =    0.0                 !
 ! D64   D(2,12,16,27)         179.9998         -DE/DX =    0.0                 !
 ! D65   D(6,15,22,19)         179.9997         -DE/DX =    0.0                 !
 ! D66   D(6,15,22,21)           0.0            -DE/DX =    0.0                 !
 ! D67   D(12,16,27,30)       -179.9998         -DE/DX =    0.0                 !
 ! D68   D(12,16,27,32)          0.0001         -DE/DX =    0.0                 !
 ! D69   D(7,17,21,22)           0.0001         -DE/DX =    0.0                 !
 ! D70   D(7,17,21,23)        -179.9998         -DE/DX =    0.0                 !
 ! D71   D(1,18,32,27)          -0.0001         -DE/DX =    0.0                 !
 ! D72   D(1,18,32,28)         179.9999         -DE/DX =    0.0                 !
 ! D73   D(24,19,22,15)        180.0002         -DE/DX =    0.0                 !
 ! D74   D(24,19,22,21)          0.0            -DE/DX =    0.0                 !
 ! D75   D(26,19,22,15)          0.0            -DE/DX =    0.0                 !
 ! D76   D(26,19,22,21)        179.9998         -DE/DX =    0.0                 !
 ! D77   D(22,19,24,20)         -0.0001         -DE/DX =    0.0                 !
 ! D78   D(22,19,24,25)       -180.0001         -DE/DX =    0.0                 !
 ! D79   D(26,19,24,20)       -179.9999         -DE/DX =    0.0                 !
 ! D80   D(26,19,24,25)          0.0001         -DE/DX =    0.0                 !
 ! D81   D(22,19,26,43)        180.0003         -DE/DX =    0.0                 !
 ! D82   D(24,19,26,43)          0.0001         -DE/DX =    0.0                 !
 ! D83   D(24,20,23,21)          0.0            -DE/DX =    0.0                 !
 ! D84   D(24,20,23,49)       -180.0001         -DE/DX =    0.0                 !
 ! D85   D(50,20,23,21)        180.0            -DE/DX =    0.0                 !
 ! D86   D(50,20,23,49)         -0.0001         -DE/DX =    0.0                 !
 ! D87   D(23,20,24,19)          0.0001         -DE/DX =    0.0                 !
 ! D88   D(23,20,24,25)        180.0001         -DE/DX =    0.0                 !
 ! D89   D(50,20,24,19)        180.0001         -DE/DX =    0.0                 !
 ! D90   D(50,20,24,25)          0.0001         -DE/DX =    0.0                 !
 ! D91   D(17,21,22,15)         -0.0001         -DE/DX =    0.0                 !
 ! D92   D(17,21,22,19)        180.0001         -DE/DX =    0.0                 !
 ! D93   D(23,21,22,15)       -180.0001         -DE/DX =    0.0                 !
 ! D94   D(23,21,22,19)          0.0001         -DE/DX =    0.0                 !
 ! D95   D(17,21,23,20)       -180.0001         -DE/DX =    0.0                 !
 ! D96   D(17,21,23,49)          0.0            -DE/DX =    0.0                 !
 ! D97   D(22,21,23,20)         -0.0001         -DE/DX =    0.0                 !
 ! D98   D(22,21,23,49)       -180.0            -DE/DX =    0.0                 !
 ! D99   D(19,24,25,38)         -0.0001         -DE/DX =    0.0                 !
 ! D100  D(20,24,25,38)        179.9999         -DE/DX =    0.0                 !
 ! D101  D(24,25,38,41)        180.0001         -DE/DX =    0.0                 !
 ! D102  D(24,25,38,43)          0.0001         -DE/DX =    0.0                 !
 ! D103  D(19,26,43,38)         -0.0001         -DE/DX =    0.0                 !
 ! D104  D(19,26,43,39)        179.9998         -DE/DX =    0.0                 !
 ! D105  D(16,27,30,29)        179.9998         -DE/DX =    0.0                 !
 ! D106  D(16,27,30,34)          0.0            -DE/DX =    0.0                 !
 ! D107  D(32,27,30,29)         -0.0001         -DE/DX =    0.0                 !
 ! D108  D(32,27,30,34)        180.0001         -DE/DX =    0.0                 !
 ! D109  D(16,27,32,18)          0.0            -DE/DX =    0.0                 !
 ! D110  D(16,27,32,28)       -179.9999         -DE/DX =    0.0                 !
 ! D111  D(30,27,32,18)        179.9999         -DE/DX =    0.0                 !
 ! D112  D(30,27,32,28)         -0.0001         -DE/DX =    0.0                 !
 ! D113  D(32,28,31,29)          0.0            -DE/DX =    0.0                 !
 ! D114  D(32,28,31,56)        179.9999         -DE/DX =    0.0                 !
 ! D115  D(55,28,31,29)        180.0            -DE/DX =    0.0                 !
 ! D116  D(55,28,31,56)         -0.0001         -DE/DX =    0.0                 !
 ! D117  D(31,28,32,18)       -179.9998         -DE/DX =    0.0                 !
 ! D118  D(31,28,32,27)          0.0002         -DE/DX =    0.0                 !
 ! D119  D(55,28,32,18)          0.0001         -DE/DX =    0.0                 !
 ! D120  D(55,28,32,27)       -179.9999         -DE/DX =    0.0                 !
 ! D121  D(31,29,30,27)          0.0002         -DE/DX =    0.0                 !
 ! D122  D(31,29,30,34)       -180.0            -DE/DX =    0.0                 !
 ! D123  D(33,29,30,27)        180.0002         -DE/DX =    0.0                 !
 ! D124  D(33,29,30,34)          0.0            -DE/DX =    0.0                 !
 ! D125  D(30,29,31,28)         -0.0001         -DE/DX =    0.0                 !
 ! D126  D(30,29,31,56)        180.0            -DE/DX =    0.0                 !
 ! D127  D(33,29,31,28)       -180.0002         -DE/DX =    0.0                 !
 ! D128  D(33,29,31,56)         -0.0001         -DE/DX =    0.0                 !
 ! D129  D(30,29,33,44)          0.0001         -DE/DX =    0.0                 !
 ! D130  D(31,29,33,44)        180.0001         -DE/DX =    0.0                 !
 ! D131  D(27,30,34,37)        179.9997         -DE/DX =    0.0                 !
 ! D132  D(29,30,34,37)         -0.0001         -DE/DX =    0.0                 !
 ! D133  D(29,33,44,35)       -180.0001         -DE/DX =    0.0                 !
 ! D134  D(29,33,44,37)         -0.0001         -DE/DX =    0.0                 !
 ! D135  D(30,34,37,44)          0.0001         -DE/DX =    0.0                 !
 ! D136  D(30,34,37,45)       -179.9997         -DE/DX =    0.0                 !
 ! D137  D(46,35,44,33)        180.0002         -DE/DX =    0.0                 !
 ! D138  D(46,35,44,37)          0.0001         -DE/DX =    0.0                 !
 ! D139  D(57,35,44,33)          0.0001         -DE/DX =    0.0                 !
 ! D140  D(57,35,44,37)       -179.9999         -DE/DX =    0.0                 !
 ! D141  D(44,35,46,36)          0.0            -DE/DX =    0.0                 !
 ! D142  D(44,35,46,58)       -180.0            -DE/DX =    0.0                 !
 ! D143  D(57,35,46,36)       -179.9999         -DE/DX =    0.0                 !
 ! D144  D(57,35,46,58)          0.0001         -DE/DX =    0.0                 !
 ! D145  D(46,36,45,37)          0.0001         -DE/DX =    0.0                 !
 ! D146  D(46,36,45,47)        180.0            -DE/DX =    0.0                 !
 ! D147  D(48,36,45,37)        180.0001         -DE/DX =    0.0                 !
 ! D148  D(48,36,45,47)          0.0            -DE/DX =    0.0                 !
 ! D149  D(45,36,46,35)         -0.0002         -DE/DX =    0.0                 !
 ! D150  D(45,36,46,58)       -180.0001         -DE/DX =    0.0                 !
 ! D151  D(48,36,46,35)        179.9999         -DE/DX =    0.0                 !
 ! D152  D(48,36,46,58)         -0.0001         -DE/DX =    0.0                 !
 ! D153  D(45,36,48,42)          0.0001         -DE/DX =    0.0                 !
 ! D154  D(46,36,48,42)       -179.9999         -DE/DX =    0.0                 !
 ! D155  D(34,37,44,33)          0.0            -DE/DX =    0.0                 !
 ! D156  D(34,37,44,35)        180.0            -DE/DX =    0.0                 !
 ! D157  D(45,37,44,33)        179.9998         -DE/DX =    0.0                 !
 ! D158  D(45,37,44,35)         -0.0001         -DE/DX =    0.0                 !
 ! D159  D(34,37,45,36)       -180.0001         -DE/DX =    0.0                 !
 ! D160  D(34,37,45,47)          0.0            -DE/DX =    0.0                 !
 ! D161  D(44,37,45,36)          0.0            -DE/DX =    0.0                 !
 ! D162  D(44,37,45,47)       -179.9999         -DE/DX =    0.0                 !
 ! D163  D(25,38,41,40)        179.9998         -DE/DX =    0.0                 !
 ! D164  D(25,38,41,60)         -0.0002         -DE/DX =    0.0                 !
 ! D165  D(43,38,41,40)         -0.0002         -DE/DX =    0.0                 !
 ! D166  D(43,38,41,60)        179.9999         -DE/DX =    0.0                 !
 ! D167  D(25,38,43,26)          0.0001         -DE/DX =    0.0                 !
 ! D168  D(25,38,43,39)       -179.9999         -DE/DX =    0.0                 !
 ! D169  D(41,38,43,26)       -179.9999         -DE/DX =    0.0                 !
 ! D170  D(41,38,43,39)          0.0001         -DE/DX =    0.0                 !
 ! D171  D(43,39,42,40)         -0.0002         -DE/DX =    0.0                 !
 ! D172  D(43,39,42,48)        179.9998         -DE/DX =    0.0                 !
 ! D173  D(47,39,42,40)        179.9999         -DE/DX =    0.0                 !
 ! D174  D(47,39,42,48)         -0.0001         -DE/DX =    0.0                 !
 ! D175  D(42,39,43,26)       -179.9999         -DE/DX =    0.0                 !
 ! D176  D(42,39,43,38)          0.0            -DE/DX =    0.0                 !
 ! D177  D(47,39,43,26)          0.0            -DE/DX =    0.0                 !
 ! D178  D(47,39,43,38)        180.0            -DE/DX =    0.0                 !
 ! D179  D(42,39,47,45)          0.0002         -DE/DX =    0.0                 !
 ! D180  D(43,39,47,45)       -179.9997         -DE/DX =    0.0                 !
 ! D181  D(42,40,41,38)          0.0            -DE/DX =    0.0                 !
 ! D182  D(42,40,41,60)        180.0            -DE/DX =    0.0                 !
 ! D183  D(59,40,41,38)       -180.0            -DE/DX =    0.0                 !
 ! D184  D(59,40,41,60)          0.0            -DE/DX =    0.0                 !
 ! D185  D(41,40,42,39)          0.0001         -DE/DX =    0.0                 !
 ! D186  D(41,40,42,48)       -179.9999         -DE/DX =    0.0                 !
 ! D187  D(59,40,42,39)       -179.9999         -DE/DX =    0.0                 !
 ! D188  D(59,40,42,48)          0.0001         -DE/DX =    0.0                 !
 ! D189  D(39,42,48,36)         -0.0001         -DE/DX =    0.0                 !
 ! D190  D(40,42,48,36)       -180.0001         -DE/DX =    0.0                 !
 ! D191  D(36,45,47,39)         -0.0001         -DE/DX =    0.0                 !
 ! D192  D(37,45,47,39)        179.9997         -DE/DX =    0.0                 !
 --------------------------------------------------------------------------------
 GradGradGradGradGradGradGradGradGradGradGradGradGradGradGradGradGradGrad

 Stoichiometry    C36H12N12
 Framework group  C1[X(C36H12N12)]
 Deg. of freedom   174
 Full point group                 C1      NOp   1
 Largest Abelian subgroup         C1      NOp   1
 Largest concise Abelian subgroup C1      NOp   1
                         Standard orientation:                         
 ---------------------------------------------------------------------
 Center     Atomic      Atomic             Coordinates (Angstroms)
 Number     Number       Type             X           Y           Z
 ---------------------------------------------------------------------
      1          6           0        4.428579   -2.295641    0.000001
      2          6           0        2.029578   -2.982471   -0.000008
      3          6           0        3.840711   -4.672332    0.000005
      4          6           0       -2.125855   -5.662330   -0.000002
      5          6           0        0.226230   -4.982963   -0.000003
      6          6           0       -1.568293   -3.248801   -0.000011
      7          6           0       -2.556099   -4.283425   -0.000005
      8          6           0       -0.154895   -3.604170   -0.000010
      9          6           0       -0.804883   -5.994434   -0.000001
     10          6           0        4.788862   -3.694477    0.000005
     11          6           0        2.431505   -4.355361   -0.000000
     12          6           0        3.044004   -1.936141   -0.000007
     13          7           0        1.521264   -5.345186    0.000001
     14          7           0        0.747337   -2.625712   -0.000014
     15          7           0       -1.900434   -1.959945   -0.000015
     16          7           0        2.647818   -0.665476   -0.000012
     17          7           0       -3.868524   -3.990261   -0.000001
     18          7           0        5.389887   -1.355362    0.000004
     19          6           0       -3.598022   -0.266404   -0.000009
     20          6           0       -5.966785   -0.990046    0.000006
     21          6           0       -4.202366   -2.687591   -0.000003
     22          6           0       -3.199023   -1.668116   -0.000011
     23          6           0       -5.593905   -2.300139    0.000004
     24          6           0       -4.987860    0.072056    0.000001
     25          7           0       -5.389887    1.355362    0.000005
     26          7           0       -2.647818    0.665476   -0.000012
     27          6           0        3.598021    0.266404   -0.000007
     28          6           0        5.966785    0.990047    0.000009
     29          6           0        4.202365    2.687592    0.000004
     30          6           0        3.199021    1.668116   -0.000006
     31          6           0        5.593905    2.300139    0.000010
     32          6           0        4.987860   -0.072057    0.000002
     33          7           0        3.868525    3.990261    0.000010
     34          7           0        1.900434    1.959945   -0.000012
     35          6           0        2.125855    5.662330    0.000014
     36          6           0       -0.226229    4.982962    0.000008
     37          6           0        1.568292    3.248802   -0.000004
     38          6           0       -4.428579    2.295641    0.000004
     39          6           0       -2.029577    2.982470   -0.000003
     40          6           0       -3.840711    4.672332    0.000012
     41          6           0       -4.788862    3.694477    0.000010
     42          6           0       -2.431504    4.355361    0.000007
     43          6           0       -3.044004    1.936140   -0.000004
     44          6           0        2.556098    4.283425    0.000006
     45          6           0        0.154896    3.604171   -0.000003
     46          6           0        0.804883    5.994434    0.000015
     47          7           0       -0.747337    2.625712   -0.000010
     48          7           0       -1.521264    5.345186    0.000012
     49          1           0       -6.329024   -3.098354    0.000010
     50          1           0       -7.012066   -0.698626    0.000012
     51          1           0       -2.900966   -6.421778    0.000002
     52          1           0       -0.480883   -7.030078    0.000001
     53          1           0        4.110817   -5.723323    0.000009
     54          1           0        5.847723   -3.931918    0.000010
     55          1           0        7.012066    0.698626    0.000013
     56          1           0        6.329024    3.098354    0.000018
     57          1           0        2.900967    6.421778    0.000021
     58          1           0        0.480883    7.030078    0.000021
     59          1           0       -4.110816    5.723323    0.000017
     60          1           0       -5.847723    3.931919    0.000014
 ---------------------------------------------------------------------
 Rotational constants (GHZ):      0.0694845      0.0694817      0.0347416

 **********************************************************************

            Population analysis using the SCF density.

 **********************************************************************

 Orbital symmetries:
       Occupied  (A) (A) (A) (A) (A) (A) (A) (A) (A) (A) (A) (A)
                 (A) (A) (A) (A) (A) (A) (A) (A) (A) (A) (A) (A)
                 (A) (A) (A) (A) (A) (A) (A) (A) (A) (A) (A) (A)
                 (A) (A) (A) (A) (A) (A) (A) (A) (A) (A) (A) (A)
                 (A) (A) (A) (A) (A) (A) (A) (A) (A) (A) (A) (A)
                 (A) (A) (A) (A) (A) (A) (A) (A) (A) (A) (A) (A)
                 (A) (A) (A) (A) (A) (A) (A) (A) (A) (A) (A) (A)
                 (A) (A) (A) (A) (A) (A) (A) (A) (A) (A) (A) (A)
                 (A) (A) (A) (A) (A) (A) (A) (A) (A) (A) (A) (A)
                 (A) (A) (A) (A) (A) (A) (A) (A) (A) (A) (A) (A)
                 (A) (A) (A) (A) (A) (A) (A) (A) (A) (A) (A) (A)
                 (A) (A) (A) (A) (A) (A) (A) (A) (A) (A) (A) (A)
                 (A) (A) (A) (A) (A) (A) (A) (A) (A) (A) (A) (A)
       Virtual   (A) (A) (A) (A) (A) (A) (A) (A) (A) (A) (A) (A)
                 (A) (A) (A) (A) (A) (A) (A) (A) (A) (A) (A) (A)
                 (A) (A) (A) (A) (A) (A) (A) (A) (A) (A) (A) (A)
                 (A) (A) (A) (A) (A) (A) (A) (A) (A) (A) (A) (A)
                 (A) (A) (A) (A) (A) (A) (A) (A) (A) (A) (A) (A)
                 (A) (A) (A) (A) (A) (A) (A) (A) (A) (A) (A) (A)
                 (A) (A) (A) (A) (A) (A) (A) (A) (A) (A) (A) (A)
                 (A) (A) (A) (A) (A) (A) (A) (A) (A) (A) (A) (A)
                 (A) (A) (A) (A) (A) (A) (A) (A) (A) (A) (A) (A)
                 (A) (A) (A) (A) (A) (A) (A) (A) (A) (A) (A) (A)
                 (A) (A) (A) (A) (A) (A) (A) (A) (A) (A) (A) (A)
                 (A) (A) (A) (A) (A) (A) (A) (A) (A) (A) (A) (A)
                 (A) (A) (A) (A) (A) (A) (A) (A) (A) (A) (A) (A)
                 (A) (A) (A) (A) (A) (A) (A) (A) (A) (A) (A) (A)
                 (A) (A) (A) (A) (A) (A) (A) (A) (A) (A) (A) (A)
                 (A) (A) (A) (A) (A) (A) (A) (A) (A) (A) (A) (A)
                 (A) (A) (A) (A) (A) (A) (A) (A) (A) (A) (A) (A)
                 (A) (A) (A) (A) (A) (A) (A) (A) (A) (A) (A) (A)
                 (A) (A) (A) (A) (A) (A) (A) (A) (A) (A) (A) (A)
                 (A) (A) (A) (A) (A) (A) (A) (A) (A) (A) (A) (A)
                 (A) (A) (A) (A) (A) (A) (A) (A) (A) (A) (A) (A)
                 (A) (A) (A) (A) (A) (A) (A) (A) (A) (A) (A) (A)
                 (A) (A) (A) (A) (A) (A) (A) (A) (A) (A) (A) (A)
                 (A) (A) (A) (A) (A) (A) (A) (A) (A) (A) (A) (A)
                 (A) (A) (A) (A) (A) (A) (A) (A) (A) (A) (A) (A)
                 (A) (A) (A) (A) (A) (A) (A) (A) (A) (A) (A) (A)
                 (A) (A) (A) (A) (A) (A) (A) (A) (A) (A) (A) (A)
                 (A) (A) (A) (A) (A) (A) (A) (A) (A) (A) (A) (A)
                 (A) (A) (A) (A) (A) (A) (A) (A) (A) (A) (A) (A)
                 (A) (A) (A) (A) (A) (A) (A) (A) (A) (A) (A) (A)
                 (A) (A) (A) (A) (A) (A) (A) (A) (A) (A) (A) (A)
                 (A) (A) (A) (A) (A) (A) (A) (A) (A) (A) (A) (A)
                 (A) (A) (A) (A) (A) (A) (A) (A) (A) (A) (A) (A)
                 (A) (A) (A) (A) (A) (A) (A) (A) (A) (A) (A) (A)
                 (A) (A) (A) (A) (A) (A) (A) (A) (A) (A) (A) (A)
                 (A) (A) (A) (A) (A) (A) (A) (A) (A) (A) (A) (A)
                 (A) (A) (A) (A) (A) (A) (A) (A) (A) (A) (A) (A)
                 (A) (A) (A) (A) (A) (A) (A) (A) (A) (A) (A) (A)
                 (A) (A) (A) (A) (A) (A) (A) (A) (A) (A) (A) (A)
                 (A) (A) (A) (A) (A) (A) (A) (A) (A) (A) (A) (A)
                 (A) (A) (A) (A) (A) (A) (A) (A) (A) (A) (A) (A)
                 (A) (A) (A) (A) (A) (A) (A) (A) (A) (A) (A) (A)
                 (A) (A) (A) (A) (A) (A) (A) (A) (A) (A) (A) (A)
                 (A) (A) (A) (A) (A) (A) (A) (A) (A) (A) (A) (A)
                 (A) (A) (A) (A) (A) (A) (A) (A) (A) (A) (A) (A)
                 (A) (A) (A) (A) (A) (A) (A) (A) (A) (A) (A) (A)
                 (A) (A) (A) (A) (A) (A) (A) (A) (A) (A) (A) (A)
                 (A) (A) (A) (A) (A) (A) (A) (A) (A) (A) (A) (A)
                 (A) (A) (A) (A) (A) (A) (A) (A) (A) (A) (A) (A)
                 (A) (A) (A) (A) (A) (A) (A) (A) (A) (A) (A) (A)
                 (A) (A) (A) (A) (A) (A) (A) (A) (A) (A) (A) (A)
                 (A) (A) (A) (A) (A) (A) (A) (A) (A) (A) (A) (A)
 The electronic state is 1-A.
 Alpha  occ. eigenvalues --  -14.35598 -14.35598 -14.35597 -14.35597 -14.35596
 Alpha  occ. eigenvalues --  -14.35596 -14.34941 -14.34941 -14.34939 -14.34939
 Alpha  occ. eigenvalues --  -14.34938 -14.34938 -10.25042 -10.25042 -10.25042
 Alpha  occ. eigenvalues --  -10.25042 -10.25041 -10.25041 -10.25041 -10.25041
 Alpha  occ. eigenvalues --  -10.25041 -10.25041 -10.25040 -10.25040 -10.24574
 Alpha  occ. eigenvalues --  -10.24574 -10.24574 -10.24574 -10.24573 -10.24573
 Alpha  occ. eigenvalues --  -10.24539 -10.24539 -10.24539 -10.24539 -10.24539
 Alpha  occ. eigenvalues --  -10.24539 -10.21626 -10.21626 -10.21625 -10.21625
 Alpha  occ. eigenvalues --  -10.21625 -10.21625 -10.21556 -10.21556 -10.21554
 Alpha  occ. eigenvalues --  -10.21554 -10.21554 -10.21554  -1.00615  -1.00041
 Alpha  occ. eigenvalues --   -1.00040  -0.98748  -0.98748  -0.98006  -0.93258
 Alpha  occ. eigenvalues --   -0.92840  -0.92840  -0.91666  -0.91666  -0.90598
 Alpha  occ. eigenvalues --   -0.87893  -0.86391  -0.86390  -0.83648  -0.83647
 Alpha  occ. eigenvalues --   -0.81499  -0.78586  -0.77734  -0.76729  -0.76728
 Alpha  occ. eigenvalues --   -0.75605  -0.75603  -0.71063  -0.71063  -0.69942
 Alpha  occ. eigenvalues --   -0.69940  -0.69679  -0.66259  -0.65997  -0.64254
 Alpha  occ. eigenvalues --   -0.64251  -0.64089  -0.64088  -0.63014  -0.59737
 Alpha  occ. eigenvalues --   -0.59715  -0.59714  -0.58099  -0.56386  -0.56385
 Alpha  occ. eigenvalues --   -0.55812  -0.55217  -0.55216  -0.52429  -0.52201
 Alpha  occ. eigenvalues --   -0.52201  -0.51472  -0.50969  -0.50967  -0.49197
 Alpha  occ. eigenvalues --   -0.48270  -0.48269  -0.47829  -0.47828  -0.46929
 Alpha  occ. eigenvalues --   -0.46767  -0.46082  -0.46081  -0.45399  -0.45396
 Alpha  occ. eigenvalues --   -0.45378  -0.43886  -0.43886  -0.43820  -0.43820
 Alpha  occ. eigenvalues --   -0.43297  -0.41780  -0.41710  -0.40982  -0.40982
 Alpha  occ. eigenvalues --   -0.39674  -0.39674  -0.38331  -0.38325  -0.38297
 Alpha  occ. eigenvalues --   -0.38296  -0.37522  -0.37297  -0.36572  -0.36572
 Alpha  occ. eigenvalues --   -0.35779  -0.35778  -0.34194  -0.34194  -0.32496
 Alpha  occ. eigenvalues --   -0.31906  -0.31710  -0.31707  -0.31461  -0.31460
 Alpha  occ. eigenvalues --   -0.30411  -0.30410  -0.30000  -0.27633  -0.27415
 Alpha  occ. eigenvalues --   -0.26682  -0.25920  -0.25349  -0.25346  -0.24873
 Alpha  occ. eigenvalues --   -0.24840  -0.24838  -0.24501  -0.24499  -0.23464
 Alpha  occ. eigenvalues --   -0.23462
 Alpha virt. eigenvalues --   -0.10112  -0.10110  -0.09909  -0.09908  -0.07547
 Alpha virt. eigenvalues --   -0.07415  -0.04021  -0.02117  -0.00856  -0.00855
 Alpha virt. eigenvalues --   -0.00468  -0.00466   0.03196   0.03198   0.03610
 Alpha virt. eigenvalues --    0.05727   0.05728   0.10037   0.10461   0.10665
 Alpha virt. eigenvalues --    0.10665   0.11092   0.11093   0.11299   0.12365
 Alpha virt. eigenvalues --    0.16780   0.16786   0.16787   0.16793   0.16793
 Alpha virt. eigenvalues --    0.17083   0.17083   0.17210   0.17428   0.18923
 Alpha virt. eigenvalues --    0.18926   0.21014   0.21014   0.21496   0.21498
 Alpha virt. eigenvalues --    0.22067   0.22350   0.22351   0.22476   0.22615
 Alpha virt. eigenvalues --    0.22686   0.23090   0.23097   0.24139   0.24143
 Alpha virt. eigenvalues --    0.26325   0.26739   0.26740   0.27356   0.28622
 Alpha virt. eigenvalues --    0.29171   0.29172   0.29934   0.29937   0.31002
 Alpha virt. eigenvalues --    0.31707   0.32004   0.32239   0.32240   0.33149
 Alpha virt. eigenvalues --    0.33153   0.35930   0.36000   0.36915   0.36916
 Alpha virt. eigenvalues --    0.38027   0.38029   0.38692   0.38751   0.38752
 Alpha virt. eigenvalues --    0.41734   0.42166   0.42169   0.42770   0.42771
 Alpha virt. eigenvalues --    0.43272   0.43274   0.43620   0.45454   0.46683
 Alpha virt. eigenvalues --    0.46685   0.47811   0.47939   0.48274   0.48276
 Alpha virt. eigenvalues --    0.48284   0.48286   0.48370   0.49130   0.49132
 Alpha virt. eigenvalues --    0.49388   0.49389   0.49589   0.49591   0.50830
 Alpha virt. eigenvalues --    0.51577   0.52962   0.53345   0.53377   0.53654
 Alpha virt. eigenvalues --    0.53657   0.53829   0.54232   0.54235   0.55423
 Alpha virt. eigenvalues --    0.55428   0.56036   0.56079   0.56236   0.56238
 Alpha virt. eigenvalues --    0.57210   0.57211   0.57514   0.57656   0.58039
 Alpha virt. eigenvalues --    0.58042   0.58454   0.58455   0.59348   0.59678
 Alpha virt. eigenvalues --    0.59681   0.59912   0.59913   0.60019   0.60718
 Alpha virt. eigenvalues --    0.60719   0.61199   0.61425   0.61539   0.61811
 Alpha virt. eigenvalues --    0.61816   0.61906   0.62222   0.62314   0.62568
 Alpha virt. eigenvalues --    0.62569   0.63034   0.63447   0.63450   0.64446
 Alpha virt. eigenvalues --    0.64447   0.64495   0.64497   0.64963   0.64964
 Alpha virt. eigenvalues --    0.65773   0.66788   0.66789   0.68315   0.68427
 Alpha virt. eigenvalues --    0.68430   0.70036   0.70037   0.72167   0.72920
 Alpha virt. eigenvalues --    0.72922   0.74488   0.75299   0.75472   0.76217
 Alpha virt. eigenvalues --    0.76219   0.76702   0.76835   0.77383   0.77387
 Alpha virt. eigenvalues --    0.78058   0.78059   0.78864   0.78865   0.80294
 Alpha virt. eigenvalues --    0.80295   0.81359   0.81702   0.81704   0.81715
 Alpha virt. eigenvalues --    0.82888   0.82891   0.83750   0.83980   0.83981
 Alpha virt. eigenvalues --    0.84733   0.84798   0.84824   0.84826   0.84962
 Alpha virt. eigenvalues --    0.84962   0.85578   0.85579   0.85599   0.85600
 Alpha virt. eigenvalues --    0.86677   0.86714   0.87555   0.87556   0.87790
 Alpha virt. eigenvalues --    0.87790   0.88188   0.88809   0.90207   0.90210
 Alpha virt. eigenvalues --    0.90780   0.91249   0.91891   0.93526   0.93529
 Alpha virt. eigenvalues --    0.93948   0.93952   0.94217   0.94266   0.97057
 Alpha virt. eigenvalues --    0.97061   0.97385   0.97806   0.97809   0.98362
 Alpha virt. eigenvalues --    0.98363   1.01176   1.01179   1.01295   1.01295
 Alpha virt. eigenvalues --    1.01802   1.02198   1.02663   1.03767   1.03768
 Alpha virt. eigenvalues --    1.04669   1.04673   1.05210   1.08282   1.11170
 Alpha virt. eigenvalues --    1.11176   1.11710   1.13122   1.13307   1.13310
 Alpha virt. eigenvalues --    1.14547   1.14821   1.14827   1.17013   1.18023
 Alpha virt. eigenvalues --    1.18282   1.19421   1.19423   1.19641   1.19642
 Alpha virt. eigenvalues --    1.19796   1.19796   1.20695   1.22351   1.22355
 Alpha virt. eigenvalues --    1.22403   1.22410   1.25169   1.25170   1.25602
 Alpha virt. eigenvalues --    1.25603   1.25816   1.26409   1.28683   1.28687
 Alpha virt. eigenvalues --    1.29471   1.29948   1.31783   1.31788   1.31909
 Alpha virt. eigenvalues --    1.32997   1.33390   1.33394   1.33674   1.33677
 Alpha virt. eigenvalues --    1.34736   1.35285   1.35286   1.35698   1.35699
 Alpha virt. eigenvalues --    1.36202   1.36202   1.36598   1.36719   1.36723
 Alpha virt. eigenvalues --    1.36938   1.37166   1.37334   1.37486   1.37547
 Alpha virt. eigenvalues --    1.37548   1.37755   1.37756   1.40103   1.42150
 Alpha virt. eigenvalues --    1.44767   1.44770   1.45620   1.46118   1.46131
 Alpha virt. eigenvalues --    1.46654   1.46659   1.47660   1.48186   1.48190
 Alpha virt. eigenvalues --    1.48729   1.49370   1.49371   1.50048   1.50477
 Alpha virt. eigenvalues --    1.50484   1.55892   1.61353   1.61358   1.63366
 Alpha virt. eigenvalues --    1.63376   1.64791   1.64966   1.65723   1.67181
 Alpha virt. eigenvalues --    1.67640   1.67644   1.68842   1.70240   1.70246
 Alpha virt. eigenvalues --    1.72495   1.72632   1.72635   1.73984   1.74204
 Alpha virt. eigenvalues --    1.74206   1.75087   1.75206   1.75222   1.75223
 Alpha virt. eigenvalues --    1.75395   1.75396   1.76114   1.76115   1.76531
 Alpha virt. eigenvalues --    1.76534   1.78809   1.79445   1.79587   1.80245
 Alpha virt. eigenvalues --    1.80978   1.80983   1.81211   1.81215   1.81759
 Alpha virt. eigenvalues --    1.81763   1.81881   1.82316   1.82317   1.82603
 Alpha virt. eigenvalues --    1.83536   1.83539   1.83900   1.83901   1.84591
 Alpha virt. eigenvalues --    1.85419   1.85420   1.86739   1.87764   1.87766
 Alpha virt. eigenvalues --    1.88407   1.89270   1.89270   1.89275   1.89508
 Alpha virt. eigenvalues --    1.89511   1.89512   1.89694   1.89697   1.91222
 Alpha virt. eigenvalues --    1.92567   1.92571   1.92710   1.92711   1.93503
 Alpha virt. eigenvalues --    1.93889   1.94017   1.94021   1.94188   1.94189
 Alpha virt. eigenvalues --    1.95572   1.95574   1.96672   1.96674   1.97745
 Alpha virt. eigenvalues --    1.97746   1.97888   1.98569   2.00078   2.00084
 Alpha virt. eigenvalues --    2.00084   2.10124   2.10685   2.10689   2.10812
 Alpha virt. eigenvalues --    2.10813   2.13277   2.13280   2.15666   2.15699
 Alpha virt. eigenvalues --    2.16109   2.16207   2.16210   2.16516   2.16517
 Alpha virt. eigenvalues --    2.16920   2.16923   2.17204   2.17431   2.17749
 Alpha virt. eigenvalues --    2.20254   2.20259   2.20390   2.21459   2.21461
 Alpha virt. eigenvalues --    2.21937   2.21942   2.22680   2.23184   2.23537
 Alpha virt. eigenvalues --    2.23543   2.26119   2.27846   2.27847   2.29919
 Alpha virt. eigenvalues --    2.29920   2.30209   2.30904   2.31764   2.31765
 Alpha virt. eigenvalues --    2.31897   2.31901   2.31920   2.31925   2.33053
 Alpha virt. eigenvalues --    2.33057   2.33946   2.34058   2.34322   2.35210
 Alpha virt. eigenvalues --    2.35214   2.35992   2.38554   2.39557   2.39558
 Alpha virt. eigenvalues --    2.39638   2.39737   2.39740   2.39967   2.40463
 Alpha virt. eigenvalues --    2.40469   2.44312   2.44314   2.44763   2.44765
 Alpha virt. eigenvalues --    2.44807   2.44810   2.45155   2.45814   2.46608
 Alpha virt. eigenvalues --    2.46611   2.46853   2.47063   2.52108   2.52196
 Alpha virt. eigenvalues --    2.52200   2.53603   2.55599   2.55602   2.56032
 Alpha virt. eigenvalues --    2.56033   2.56136   2.58079   2.58081   2.58118
 Alpha virt. eigenvalues --    2.58120   2.59096   2.59101   2.59131   2.60321
 Alpha virt. eigenvalues --    2.60757   2.61215   2.61221   2.61867   2.61873
 Alpha virt. eigenvalues --    2.61892   2.61892   2.62819   2.63226   2.64371
 Alpha virt. eigenvalues --    2.64875   2.65730   2.65871   2.65874   2.67802
 Alpha virt. eigenvalues --    2.68739   2.68742   2.69990   2.71616   2.71617
 Alpha virt. eigenvalues --    2.71718   2.71726   2.72771   2.72773   2.74012
 Alpha virt. eigenvalues --    2.74589   2.74952   2.78006   2.78008   2.79148
 Alpha virt. eigenvalues --    2.79150   2.80043   2.80047   2.80762   2.83034
 Alpha virt. eigenvalues --    2.83036   2.84162   2.84164   2.84364   2.84370
 Alpha virt. eigenvalues --    2.84928   2.85428   2.86981   2.86983   2.88267
 Alpha virt. eigenvalues --    2.89071   2.89078   2.89390   2.92141   2.96671
 Alpha virt. eigenvalues --    3.02577   3.02579   3.03184   3.03185   3.06777
 Alpha virt. eigenvalues --    3.10133   3.10141   3.10671   3.12860   3.12863
 Alpha virt. eigenvalues --    3.14269   3.14770   3.14771   3.15713   3.16040
 Alpha virt. eigenvalues --    3.16044   3.21521   3.22852   3.24860   3.26539
 Alpha virt. eigenvalues --    3.26542   3.26691   3.26693   3.27608   3.28598
 Alpha virt. eigenvalues --    3.28600   3.34201   3.37827   3.37830   3.44408
 Alpha virt. eigenvalues --    3.44410   3.47396   3.56443   3.56448   3.59978
 Alpha virt. eigenvalues --    3.69119   3.69124   3.69918   3.72347   3.72355
 Alpha virt. eigenvalues --    3.75178   3.95652   4.02613   4.02617   4.02754
 Alpha virt. eigenvalues --    4.04694   4.04695   4.05725   4.05728   4.06454
 Alpha virt. eigenvalues --    4.08233   4.08234   4.09035   4.14580   4.15571
 Alpha virt. eigenvalues --    4.15575   4.15720   4.15725   4.16569   4.17913
 Alpha virt. eigenvalues --    4.21515   4.21515   4.30833   4.30837   4.35457
 Alpha virt. eigenvalues --    4.41769   4.41772   4.43454   4.44096   4.44096
 Alpha virt. eigenvalues --    4.45262   4.46782   4.51577   4.51581   4.52227
 Alpha virt. eigenvalues --    4.52228   4.55451   4.65840   4.70569   4.70572
 Alpha virt. eigenvalues --    4.78387   4.78392   4.81877   4.82798   4.88032
 Alpha virt. eigenvalues --    4.88035   5.04486   5.04489   5.16972
          Condensed to atoms (all electrons):
 Mulliken charges:
               1
     1  C    0.274250
     2  C    0.244005
     3  C   -0.093605
     4  C   -0.093643
     5  C    0.274274
     6  C    0.244038
     7  C    0.274187
     8  C    0.243874
     9  C   -0.093575
    10  C   -0.093552
    11  C    0.274211
    12  C    0.243923
    13  N   -0.574312
    14  N   -0.502740
    15  N   -0.502617
    16  N   -0.502674
    17  N   -0.574229
    18  N   -0.574292
    19  C    0.243903
    20  C   -0.093596
    21  C    0.274339
    22  C    0.243909
    23  C   -0.093655
    24  C    0.274230
    25  N   -0.574292
    26  N   -0.502674
    27  C    0.243904
    28  C   -0.093596
    29  C    0.274339
    30  C    0.243910
    31  C   -0.093655
    32  C    0.274230
    33  N   -0.574229
    34  N   -0.502616
    35  C   -0.093644
    36  C    0.274273
    37  C    0.244038
    38  C    0.274250
    39  C    0.244006
    40  C   -0.093605
    41  C   -0.093551
    42  C    0.274212
    43  C    0.243924
    44  C    0.274186
    45  C    0.243874
    46  C   -0.093575
    47  N   -0.502740
    48  N   -0.574312
    49  H    0.113882
    50  H    0.113877
    51  H    0.113889
    52  H    0.113893
    53  H    0.113901
    54  H    0.113902
    55  H    0.113877
    56  H    0.113882
    57  H    0.113889
    58  H    0.113893
    59  H    0.113901
    60  H    0.113902
 Sum of Mulliken charges =  -0.00000
 Mulliken charges with hydrogens summed into heavy atoms:
               1
     1  C    0.274250
     2  C    0.244005
     3  C    0.020296
     4  C    0.020245
     5  C    0.274274
     6  C    0.244038
     7  C    0.274187
     8  C    0.243874
     9  C    0.020318
    10  C    0.020351
    11  C    0.274211
    12  C    0.243923
    13  N   -0.574312
    14  N   -0.502740
    15  N   -0.502617
    16  N   -0.502674
    17  N   -0.574229
    18  N   -0.574292
    19  C    0.243903
    20  C    0.020281
    21  C    0.274339
    22  C    0.243909
    23  C    0.020227
    24  C    0.274230
    25  N   -0.574292
    26  N   -0.502674
    27  C    0.243904
    28  C    0.020281
    29  C    0.274339
    30  C    0.243910
    31  C    0.020227
    32  C    0.274230
    33  N   -0.574229
    34  N   -0.502616
    35  C    0.020245
    36  C    0.274273
    37  C    0.244038
    38  C    0.274250
    39  C    0.244006
    40  C    0.020296
    41  C    0.020351
    42  C    0.274212
    43  C    0.243924
    44  C    0.274186
    45  C    0.243874
    46  C    0.020318
    47  N   -0.502740
    48  N   -0.574312
 Electronic spatial extent (au):  <R**2>=          27574.0867
 Charge=              0.0000 electrons
 Dipole moment (field-independent basis, Debye):
    X=              0.0000    Y=             -0.0000    Z=              0.0000  Tot=              0.0000
 Quadrupole moment (field-independent basis, Debye-Ang):
   XX=           -235.8635   YY=           -235.8604   ZZ=           -262.5846
   XY=             -0.0033   XZ=              0.0000   YZ=              0.0000
 Traceless Quadrupole moment (field-independent basis, Debye-Ang):
   XX=              8.9060   YY=              8.9091   ZZ=            -17.8151
   XY=             -0.0033   XZ=              0.0000   YZ=              0.0000
 Octapole moment (field-independent basis, Debye-Ang**2):
  XXX=              0.0000  YYY=             -0.0001  ZZZ=             -0.0002  XYY=             -0.0000
  XXY=             -0.0000  XXZ=              0.0003  XZZ=              0.0000  YZZ=             -0.0000
  YYZ=              0.0002  XYZ=              0.0001
 Hexadecapole moment (field-independent basis, Debye-Ang**3):
 XXXX=         -18117.2110 YYYY=         -18116.3058 ZZZZ=           -255.2255 XXXY=              0.0327
 XXXZ=             -0.0021 YYYX=             -0.2760 YYYZ=             -0.0084 ZZZX=             -0.0020
 ZZZY=             -0.0105 XXYY=          -6038.9124 XXZZ=          -3323.2997 YYZZ=          -3323.1587
 XXYZ=             -0.0033 YYXZ=             -0.0002 ZZXY=             -0.0114
 N-N= 5.333464137900D+03 E-N=-1.539420016958D+04  KE= 2.017504791666D+03
 1\1\GINC-T151\FOpt\RB3LYP\6-31G(d,p)\C36H12N12\LV15011\10-Nov-2025\0\\
 # opt freq b3lyp/6-31g(d,p) geom=connectivity scf=xqc\\C2N\\0,1\C,-4.9
 355958191,0.7226196182,0.0000352173\C,-2.8926897186,2.1556140818,0.000
 0264569\C,-5.1565692855,3.1609420295,0.0000394793\C,0.1590270228,6.046
 1532292,0.00003288\C,-1.84197594,4.6355402685,0.0000314109\C,0.4206792
 31,3.582916144,0.0000231688\C,1.0162082976,4.8835134111,0.0000295858\C
 ,-1.0312552773,3.4569576584,0.000024025\C,-1.1979529035,5.9284062367,0
 .0000335766\C,-5.7331683124,1.9269548984,0.0000397384\C,-3.7211423064,
 3.3218210603,0.0000340086\C,-3.5095520477,0.8352555665,0.0000272779\N,
 -3.1842833614,4.5547346364,0.0000350679\N,-1.5642590387,2.2374041526,0
 .0000201743\N,1.1557183308,2.4733285867,0.0000193126\N,-2.7199273986,-
 0.2362135357,0.0000225852\N,2.3523871051,5.0352706687,0.0000331069\N,-
 5.5369079221,-0.4801537276,0.0000388595\C,3.3134872403,1.4274223719,0.
 0000257928\C,5.3157870009,2.8853288966,0.0000401662\C,3.0935473951,3.9
 131819188,0.0000317191\C,2.4783845989,2.6218256053,0.0000238171\C,4.53
 53058067,4.0016763151,0.0000387598\C,4.7376308678,1.5616632211,0.00003
 53156\N,5.5369068356,0.4801555313,0.0000398695\N,2.7199262611,0.236215
 9735,0.0000225767\C,-3.3134880043,-1.4274193629,0.000027636\C,-5.31578
 78185,-2.8853268932,0.0000429378\C,-3.0935476597,-3.9131805419,0.00003
 86717\C,-2.4783845455,-2.621822986,0.0000281455\C,-4.5353069499,-4.001
 6739041,0.0000445623\C,-4.7376320155,-1.5616603143,0.0000363082\N,-2.3
 523886793,-5.0352680733,0.0000439435\N,-1.1557196797,-2.4733260391,0.0
 000228784\C,-0.1590283168,-6.0461508935,0.0000485713\C,1.8419737531,-4
 .6355380795,0.0000423933\C,-0.4206797832,-3.582914645,0.0000302342\C,4
 .9355946058,-0.7226167212,0.0000379319\C,2.8926875973,-2.1556115908,0.
 0000312813\C,5.1565681197,-3.1609395444,0.0000463632\C,5.7331670429,-1
 .9269528154,0.0000444456\C,3.7211405231,-3.3218193586,0.000041434\C,3.
 5095503407,-0.8352527088,0.0000299527\C,-1.0162079497,-4.8835107846,0.
 0000404687\C,1.0312537691,-3.4569560071,0.0000313231\C,1.1979521178,-5
 .9284039228,0.000049172\N,1.5642579325,-2.2374016608,0.0000245083\N,3.
 1842826112,-4.5547319365,0.0000461441\H,4.9692625986,4.9962759081,0.00
 00447414\H,6.3989157227,2.9514453956,0.0000461614\H,0.6434480394,7.017
 1813608,0.0000360945\H,-1.8425617642,6.8013407716,0.0000358283\H,-5.75
 52562247,4.0659904912,0.0000434428\H,-6.8114933272,1.8053853802,0.0000
 439985\H,-6.3989165393,-2.9514433785,0.000047519\H,-4.9692634802,-4.99
 62736811,0.0000519532\H,-0.643449908,-7.0171786977,0.0000551967\H,1.84
 25613317,-6.8013381568,0.000055004\H,5.7552548391,-4.0659881774,0.0000
 516094\H,6.8114920386,-1.8053832495,0.0000481949\\Version=ES64L-G09Rev
 D.01\State=1-A\HF=-2036.1737195\RMSD=7.691e-09\RMSF=4.886e-05\Dipole=-
 0.0000009,0.0000014,0.0000151\Quadrupole=6.6231289,6.6219303,-13.24505
 92,-0.0026261,0.0000044,-0.0000204\PG=C01 [X(C36H12N12)]\\@


 UNLESS WE CHANGE DIRECTIONS, WE WILL WIND UP WHERE WE ARE HEADED.
     -- CONFUCIUS
 Job cpu time:       0 days  1 hours 26 minutes 26.7 seconds.
 File lengths (MBytes):  RWF=    373 Int=      0 D2E=      0 Chk=     42 Scr=      1
 Normal termination of Gaussian 09 at Mon Nov 10 06:40:45 2025.
 Link1:  Proceeding to internal job step number  2.
 ----------------------------------------------------------------------
 #N Geom=AllCheck Guess=TCheck SCRF=Check GenChk RB3LYP/6-31G(d,p) Freq
 ----------------------------------------------------------------------
 1/10=4,29=7,30=1,38=1,40=1/1,3;
 2/12=2,40=1/2;
 3/5=1,6=6,7=101,11=2,14=-4,16=1,25=1,30=1,70=2,71=2,74=-5,116=1,140=1/1,2,3;
 4/5=101/1;
 5/5=2,8=3,13=1,98=1/2,8;
 8/6=4,10=90,11=11/1;
 11/6=1,8=1,9=11,15=111,16=1/1,2,10;
 10/6=1/2;
 6/7=2,8=2,9=2,10=2,18=1,28=1/1;
 7/8=1,10=1,25=1/1,2,3,16;
 1/10=4,30=1/3;
 99//99;
 Structure from the checkpoint file:  "/scratch/tmp/3419170/Gau-179605.chk"
 ---
 C2N
 ---
 Charge =  0 Multiplicity = 1
 Redundant internal coordinates found in file.
 C,0,-4.9355958191,0.7226196182,0.0000352173
 C,0,-2.8926897186,2.1556140818,0.0000264569
 C,0,-5.1565692855,3.1609420295,0.0000394793
 C,0,0.1590270228,6.0461532292,0.00003288
 C,0,-1.84197594,4.6355402685,0.0000314109
 C,0,0.420679231,3.582916144,0.0000231688
 C,0,1.0162082976,4.8835134111,0.0000295858
 C,0,-1.0312552773,3.4569576584,0.000024025
 C,0,-1.1979529035,5.9284062367,0.0000335766
 C,0,-5.7331683124,1.9269548984,0.0000397384
 C,0,-3.7211423064,3.3218210603,0.0000340086
 C,0,-3.5095520477,0.8352555665,0.0000272779
 N,0,-3.1842833614,4.5547346364,0.0000350679
 N,0,-1.5642590387,2.2374041526,0.0000201743
 N,0,1.1557183308,2.4733285867,0.0000193126
 N,0,-2.7199273986,-0.2362135357,0.0000225852
 N,0,2.3523871051,5.0352706687,0.0000331069
 N,0,-5.5369079221,-0.4801537276,0.0000388595
 C,0,3.3134872403,1.4274223719,0.0000257928
 C,0,5.3157870009,2.8853288966,0.0000401662
 C,0,3.0935473951,3.9131819188,0.0000317191
 C,0,2.4783845989,2.6218256053,0.0000238171
 C,0,4.5353058067,4.0016763151,0.0000387598
 C,0,4.7376308678,1.5616632211,0.0000353156
 N,0,5.5369068356,0.4801555313,0.0000398695
 N,0,2.7199262611,0.2362159735,0.0000225767
 C,0,-3.3134880043,-1.4274193629,0.000027636
 C,0,-5.3157878185,-2.8853268932,0.0000429378
 C,0,-3.0935476597,-3.9131805419,0.0000386717
 C,0,-2.4783845455,-2.621822986,0.0000281455
 C,0,-4.5353069499,-4.0016739041,0.0000445623
 C,0,-4.7376320155,-1.5616603143,0.0000363082
 N,0,-2.3523886793,-5.0352680733,0.0000439435
 N,0,-1.1557196797,-2.4733260391,0.0000228784
 C,0,-0.1590283168,-6.0461508935,0.0000485713
 C,0,1.8419737531,-4.6355380795,0.0000423933
 C,0,-0.4206797832,-3.582914645,0.0000302342
 C,0,4.9355946058,-0.7226167212,0.0000379319
 C,0,2.8926875973,-2.1556115908,0.0000312813
 C,0,5.1565681197,-3.1609395444,0.0000463632
 C,0,5.7331670429,-1.9269528154,0.0000444456
 C,0,3.7211405231,-3.3218193586,0.000041434
 C,0,3.5095503407,-0.8352527088,0.0000299527
 C,0,-1.0162079497,-4.8835107846,0.0000404687
 C,0,1.0312537691,-3.4569560071,0.0000313231
 C,0,1.1979521178,-5.9284039228,0.000049172
 N,0,1.5642579325,-2.2374016608,0.0000245083
 N,0,3.1842826112,-4.5547319365,0.0000461441
 H,0,4.9692625986,4.9962759081,0.0000447414
 H,0,6.3989157227,2.9514453956,0.0000461614
 H,0,0.6434480394,7.0171813608,0.0000360945
 H,0,-1.8425617642,6.8013407716,0.0000358283
 H,0,-5.7552562247,4.0659904912,0.0000434428
 H,0,-6.8114933272,1.8053853802,0.0000439985
 H,0,-6.3989165393,-2.9514433785,0.000047519
 H,0,-4.9692634802,-4.9962736811,0.0000519532
 H,0,-0.643449908,-7.0171786977,0.0000551967
 H,0,1.8425613317,-6.8013381568,0.000055004
 H,0,5.7552548391,-4.0659881774,0.0000516094
 H,0,6.8114920386,-1.8053832495,0.0000481949
 Recover connectivity data from disk.

 GradGradGradGradGradGradGradGradGradGradGradGradGradGradGradGradGradGrad
 Berny optimization.
 Initialization pass.
                           ----------------------------
                           !    Initial Parameters    !
                           ! (Angstroms and Degrees)  !
 --------------------------                            --------------------------
 ! Name  Definition              Value          Derivative Info.                !
 --------------------------------------------------------------------------------
 ! R1    R(1,10)                 1.4445         calculate D2E/DX2 analytically  !
 ! R2    R(1,12)                 1.4305         calculate D2E/DX2 analytically  !
 ! R3    R(1,18)                 1.3447         calculate D2E/DX2 analytically  !
 ! R4    R(2,11)                 1.4305         calculate D2E/DX2 analytically  !
 ! R5    R(2,12)                 1.4573         calculate D2E/DX2 analytically  !
 ! R6    R(2,14)                 1.3309         calculate D2E/DX2 analytically  !
 ! R7    R(3,10)                 1.3621         calculate D2E/DX2 analytically  !
 ! R8    R(3,11)                 1.4444         calculate D2E/DX2 analytically  !
 ! R9    R(3,53)                 1.0851         calculate D2E/DX2 analytically  !
 ! R10   R(4,7)                  1.4445         calculate D2E/DX2 analytically  !
 ! R11   R(4,9)                  1.3621         calculate D2E/DX2 analytically  !
 ! R12   R(4,51)                 1.0852         calculate D2E/DX2 analytically  !
 ! R13   R(5,8)                  1.4305         calculate D2E/DX2 analytically  !
 ! R14   R(5,9)                  1.4444         calculate D2E/DX2 analytically  !
 ! R15   R(5,13)                 1.3447         calculate D2E/DX2 analytically  !
 ! R16   R(6,7)                  1.4305         calculate D2E/DX2 analytically  !
 ! R17   R(6,8)                  1.4574         calculate D2E/DX2 analytically  !
 ! R18   R(6,15)                 1.331          calculate D2E/DX2 analytically  !
 ! R19   R(7,17)                 1.3448         calculate D2E/DX2 analytically  !
 ! R20   R(8,14)                 1.3309         calculate D2E/DX2 analytically  !
 ! R21   R(9,52)                 1.0851         calculate D2E/DX2 analytically  !
 ! R22   R(10,54)                1.0852         calculate D2E/DX2 analytically  !
 ! R23   R(11,13)                1.3447         calculate D2E/DX2 analytically  !
 ! R24   R(12,16)                1.331          calculate D2E/DX2 analytically  !
 ! R25   R(15,22)                1.331          calculate D2E/DX2 analytically  !
 ! R26   R(16,27)                1.3309         calculate D2E/DX2 analytically  !
 ! R27   R(17,21)                1.3448         calculate D2E/DX2 analytically  !
 ! R28   R(18,32)                1.3448         calculate D2E/DX2 analytically  !
 ! R29   R(19,22)                1.4574         calculate D2E/DX2 analytically  !
 ! R30   R(19,24)                1.4305         calculate D2E/DX2 analytically  !
 ! R31   R(19,26)                1.3309         calculate D2E/DX2 analytically  !
 ! R32   R(20,23)                1.3621         calculate D2E/DX2 analytically  !
 ! R33   R(20,24)                1.4444         calculate D2E/DX2 analytically  !
 ! R34   R(20,50)                1.0851         calculate D2E/DX2 analytically  !
 ! R35   R(21,22)                1.4304         calculate D2E/DX2 analytically  !
 ! R36   R(21,23)                1.4445         calculate D2E/DX2 analytically  !
 ! R37   R(23,49)                1.0851         calculate D2E/DX2 analytically  !
 ! R38   R(24,25)                1.3448         calculate D2E/DX2 analytically  !
 ! R39   R(25,38)                1.3447         calculate D2E/DX2 analytically  !
 ! R40   R(26,43)                1.331          calculate D2E/DX2 analytically  !
 ! R41   R(27,30)                1.4574         calculate D2E/DX2 analytically  !
 ! R42   R(27,32)                1.4305         calculate D2E/DX2 analytically  !
 ! R43   R(28,31)                1.3621         calculate D2E/DX2 analytically  !
 ! R44   R(28,32)                1.4444         calculate D2E/DX2 analytically  !
 ! R45   R(28,55)                1.0851         calculate D2E/DX2 analytically  !
 ! R46   R(29,30)                1.4304         calculate D2E/DX2 analytically  !
 ! R47   R(29,31)                1.4445         calculate D2E/DX2 analytically  !
 ! R48   R(29,33)                1.3448         calculate D2E/DX2 analytically  !
 ! R49   R(30,34)                1.331          calculate D2E/DX2 analytically  !
 ! R50   R(31,56)                1.0851         calculate D2E/DX2 analytically  !
 ! R51   R(33,44)                1.3448         calculate D2E/DX2 analytically  !
 ! R52   R(34,37)                1.331          calculate D2E/DX2 analytically  !
 ! R53   R(35,44)                1.4445         calculate D2E/DX2 analytically  !
 ! R54   R(35,46)                1.3621         calculate D2E/DX2 analytically  !
 ! R55   R(35,57)                1.0852         calculate D2E/DX2 analytically  !
 ! R56   R(36,45)                1.4305         calculate D2E/DX2 analytically  !
 ! R57   R(36,46)                1.4444         calculate D2E/DX2 analytically  !
 ! R58   R(36,48)                1.3447         calculate D2E/DX2 analytically  !
 ! R59   R(37,44)                1.4305         calculate D2E/DX2 analytically  !
 ! R60   R(37,45)                1.4574         calculate D2E/DX2 analytically  !
 ! R61   R(38,41)                1.4445         calculate D2E/DX2 analytically  !
 ! R62   R(38,43)                1.4305         calculate D2E/DX2 analytically  !
 ! R63   R(39,42)                1.4305         calculate D2E/DX2 analytically  !
 ! R64   R(39,43)                1.4573         calculate D2E/DX2 analytically  !
 ! R65   R(39,47)                1.3309         calculate D2E/DX2 analytically  !
 ! R66   R(40,41)                1.3621         calculate D2E/DX2 analytically  !
 ! R67   R(40,42)                1.4444         calculate D2E/DX2 analytically  !
 ! R68   R(40,59)                1.0851         calculate D2E/DX2 analytically  !
 ! R69   R(41,60)                1.0852         calculate D2E/DX2 analytically  !
 ! R70   R(42,48)                1.3447         calculate D2E/DX2 analytically  !
 ! R71   R(45,47)                1.3309         calculate D2E/DX2 analytically  !
 ! R72   R(46,58)                1.0851         calculate D2E/DX2 analytically  !
 ! A1    A(10,1,12)            118.9984         calculate D2E/DX2 analytically  !
 ! A2    A(10,1,18)            119.9232         calculate D2E/DX2 analytically  !
 ! A3    A(12,1,18)            121.0783         calculate D2E/DX2 analytically  !
 ! A4    A(11,2,12)            119.569          calculate D2E/DX2 analytically  !
 ! A5    A(11,2,14)            121.8661         calculate D2E/DX2 analytically  !
 ! A6    A(12,2,14)            118.5648         calculate D2E/DX2 analytically  !
 ! A7    A(10,3,11)            121.4399         calculate D2E/DX2 analytically  !
 ! A8    A(10,3,53)            121.4704         calculate D2E/DX2 analytically  !
 ! A9    A(11,3,53)            117.0896         calculate D2E/DX2 analytically  !
 ! A10   A(7,4,9)              121.4411         calculate D2E/DX2 analytically  !
 ! A11   A(7,4,51)             117.0863         calculate D2E/DX2 analytically  !
 ! A12   A(9,4,51)             121.4726         calculate D2E/DX2 analytically  !
 ! A13   A(8,5,9)              118.9972         calculate D2E/DX2 analytically  !
 ! A14   A(8,5,13)             121.0782         calculate D2E/DX2 analytically  !
 ! A15   A(9,5,13)             119.9245         calculate D2E/DX2 analytically  !
 ! A16   A(7,6,8)              119.5606         calculate D2E/DX2 analytically  !
 ! A17   A(7,6,15)             121.8753         calculate D2E/DX2 analytically  !
 ! A18   A(8,6,15)             118.5641         calculate D2E/DX2 analytically  !
 ! A19   A(4,7,6)              118.9972         calculate D2E/DX2 analytically  !
 ! A20   A(4,7,17)             119.9207         calculate D2E/DX2 analytically  !
 ! A21   A(6,7,17)             121.0822         calculate D2E/DX2 analytically  !
 ! A22   A(5,8,6)              119.5651         calculate D2E/DX2 analytically  !
 ! A23   A(5,8,14)             121.8691         calculate D2E/DX2 analytically  !
 ! A24   A(6,8,14)             118.5658         calculate D2E/DX2 analytically  !
 ! A25   A(4,9,5)              121.4388         calculate D2E/DX2 analytically  !
 ! A26   A(4,9,52)             121.4844         calculate D2E/DX2 analytically  !
 ! A27   A(5,9,52)             117.0768         calculate D2E/DX2 analytically  !
 ! A28   A(1,10,3)             121.4404         calculate D2E/DX2 analytically  !
 ! A29   A(1,10,54)            117.0822         calculate D2E/DX2 analytically  !
 ! A30   A(3,10,54)            121.4774         calculate D2E/DX2 analytically  !
 ! A31   A(2,11,3)             118.9944         calculate D2E/DX2 analytically  !
 ! A32   A(2,11,13)            121.0805         calculate D2E/DX2 analytically  !
 ! A33   A(3,11,13)            119.9251         calculate D2E/DX2 analytically  !
 ! A34   A(1,12,2)             119.5578         calculate D2E/DX2 analytically  !
 ! A35   A(1,12,16)            121.8724         calculate D2E/DX2 analytically  !
 ! A36   A(2,12,16)            118.5698         calculate D2E/DX2 analytically  !
 ! A37   A(5,13,11)            116.9752         calculate D2E/DX2 analytically  !
 ! A38   A(2,14,8)             117.1308         calculate D2E/DX2 analytically  !
 ! A39   A(6,15,22)            117.1164         calculate D2E/DX2 analytically  !
 ! A40   A(12,16,27)           117.125          calculate D2E/DX2 analytically  !
 ! A41   A(7,17,21)            116.9659         calculate D2E/DX2 analytically  !
 ! A42   A(1,18,32)            116.9719         calculate D2E/DX2 analytically  !
 ! A43   A(22,19,24)           119.5756         calculate D2E/DX2 analytically  !
 ! A44   A(22,19,26)           118.5531         calculate D2E/DX2 analytically  !
 ! A45   A(24,19,26)           121.8712         calculate D2E/DX2 analytically  !
 ! A46   A(23,20,24)           121.4462         calculate D2E/DX2 analytically  !
 ! A47   A(23,20,50)           121.4657         calculate D2E/DX2 analytically  !
 ! A48   A(24,20,50)           117.0881         calculate D2E/DX2 analytically  !
 ! A49   A(17,21,22)           121.0828         calculate D2E/DX2 analytically  !
 ! A50   A(17,21,23)           119.9331         calculate D2E/DX2 analytically  !
 ! A51   A(22,21,23)           118.9841         calculate D2E/DX2 analytically  !
 ! A52   A(15,22,19)           118.5546         calculate D2E/DX2 analytically  !
 ! A53   A(15,22,21)           121.8775         calculate D2E/DX2 analytically  !
 ! A54   A(19,22,21)           119.5678         calculate D2E/DX2 analytically  !
 ! A55   A(20,23,21)           121.4465         calculate D2E/DX2 analytically  !
 ! A56   A(20,23,49)           121.4689         calculate D2E/DX2 analytically  !
 ! A57   A(21,23,49)           117.0847         calculate D2E/DX2 analytically  !
 ! A58   A(19,24,20)           118.9798         calculate D2E/DX2 analytically  !
 ! A59   A(19,24,25)           121.081          calculate D2E/DX2 analytically  !
 ! A60   A(20,24,25)           119.9392         calculate D2E/DX2 analytically  !
 ! A61   A(24,25,38)           116.9719         calculate D2E/DX2 analytically  !
 ! A62   A(19,26,43)           117.125          calculate D2E/DX2 analytically  !
 ! A63   A(16,27,30)           118.5531         calculate D2E/DX2 analytically  !
 ! A64   A(16,27,32)           121.8712         calculate D2E/DX2 analytically  !
 ! A65   A(30,27,32)           119.5757         calculate D2E/DX2 analytically  !
 ! A66   A(31,28,32)           121.4462         calculate D2E/DX2 analytically  !
 ! A67   A(31,28,55)           121.4657         calculate D2E/DX2 analytically  !
 ! A68   A(32,28,55)           117.088          calculate D2E/DX2 analytically  !
 ! A69   A(30,29,31)           118.984          calculate D2E/DX2 analytically  !
 ! A70   A(30,29,33)           121.0828         calculate D2E/DX2 analytically  !
 ! A71   A(31,29,33)           119.9331         calculate D2E/DX2 analytically  !
 ! A72   A(27,30,29)           119.5678         calculate D2E/DX2 analytically  !
 ! A73   A(27,30,34)           118.5547         calculate D2E/DX2 analytically  !
 ! A74   A(29,30,34)           121.8775         calculate D2E/DX2 analytically  !
 ! A75   A(28,31,29)           121.4465         calculate D2E/DX2 analytically  !
 ! A76   A(28,31,56)           121.4689         calculate D2E/DX2 analytically  !
 ! A77   A(29,31,56)           117.0846         calculate D2E/DX2 analytically  !
 ! A78   A(18,32,27)           121.081          calculate D2E/DX2 analytically  !
 ! A79   A(18,32,28)           119.9392         calculate D2E/DX2 analytically  !
 ! A80   A(27,32,28)           118.9797         calculate D2E/DX2 analytically  !
 ! A81   A(29,33,44)           116.9659         calculate D2E/DX2 analytically  !
 ! A82   A(30,34,37)           117.1164         calculate D2E/DX2 analytically  !
 ! A83   A(44,35,46)           121.441          calculate D2E/DX2 analytically  !
 ! A84   A(44,35,57)           117.0863         calculate D2E/DX2 analytically  !
 ! A85   A(46,35,57)           121.4727         calculate D2E/DX2 analytically  !
 ! A86   A(45,36,46)           118.9973         calculate D2E/DX2 analytically  !
 ! A87   A(45,36,48)           121.0782         calculate D2E/DX2 analytically  !
 ! A88   A(46,36,48)           119.9245         calculate D2E/DX2 analytically  !
 ! A89   A(34,37,44)           121.8753         calculate D2E/DX2 analytically  !
 ! A90   A(34,37,45)           118.5641         calculate D2E/DX2 analytically  !
 ! A91   A(44,37,45)           119.5606         calculate D2E/DX2 analytically  !
 ! A92   A(25,38,41)           119.9232         calculate D2E/DX2 analytically  !
 ! A93   A(25,38,43)           121.0784         calculate D2E/DX2 analytically  !
 ! A94   A(41,38,43)           118.9984         calculate D2E/DX2 analytically  !
 ! A95   A(42,39,43)           119.569          calculate D2E/DX2 analytically  !
 ! A96   A(42,39,47)           121.8661         calculate D2E/DX2 analytically  !
 ! A97   A(43,39,47)           118.5649         calculate D2E/DX2 analytically  !
 ! A98   A(41,40,42)           121.44           calculate D2E/DX2 analytically  !
 ! A99   A(41,40,59)           121.4705         calculate D2E/DX2 analytically  !
 ! A100  A(42,40,59)           117.0896         calculate D2E/DX2 analytically  !
 ! A101  A(38,41,40)           121.4404         calculate D2E/DX2 analytically  !
 ! A102  A(38,41,60)           117.0822         calculate D2E/DX2 analytically  !
 ! A103  A(40,41,60)           121.4774         calculate D2E/DX2 analytically  !
 ! A104  A(39,42,40)           118.9944         calculate D2E/DX2 analytically  !
 ! A105  A(39,42,48)           121.0805         calculate D2E/DX2 analytically  !
 ! A106  A(40,42,48)           119.9251         calculate D2E/DX2 analytically  !
 ! A107  A(26,43,38)           121.8724         calculate D2E/DX2 analytically  !
 ! A108  A(26,43,39)           118.5698         calculate D2E/DX2 analytically  !
 ! A109  A(38,43,39)           119.5578         calculate D2E/DX2 analytically  !
 ! A110  A(33,44,35)           119.9206         calculate D2E/DX2 analytically  !
 ! A111  A(33,44,37)           121.0821         calculate D2E/DX2 analytically  !
 ! A112  A(35,44,37)           118.9973         calculate D2E/DX2 analytically  !
 ! A113  A(36,45,37)           119.5651         calculate D2E/DX2 analytically  !
 ! A114  A(36,45,47)           121.8691         calculate D2E/DX2 analytically  !
 ! A115  A(37,45,47)           118.5658         calculate D2E/DX2 analytically  !
 ! A116  A(35,46,36)           121.4387         calculate D2E/DX2 analytically  !
 ! A117  A(35,46,58)           121.4844         calculate D2E/DX2 analytically  !
 ! A118  A(36,46,58)           117.0769         calculate D2E/DX2 analytically  !
 ! A119  A(39,47,45)           117.1308         calculate D2E/DX2 analytically  !
 ! A120  A(36,48,42)           116.9752         calculate D2E/DX2 analytically  !
 ! D1    D(12,1,10,3)           -0.0001         calculate D2E/DX2 analytically  !
 ! D2    D(12,1,10,54)         179.9999         calculate D2E/DX2 analytically  !
 ! D3    D(18,1,10,3)          179.9998         calculate D2E/DX2 analytically  !
 ! D4    D(18,1,10,54)          -0.0001         calculate D2E/DX2 analytically  !
 ! D5    D(10,1,12,2)            0.0001         calculate D2E/DX2 analytically  !
 ! D6    D(10,1,12,16)        -180.0            calculate D2E/DX2 analytically  !
 ! D7    D(18,1,12,2)         -179.9999         calculate D2E/DX2 analytically  !
 ! D8    D(18,1,12,16)           0.0            calculate D2E/DX2 analytically  !
 ! D9    D(10,1,18,32)        -179.9999         calculate D2E/DX2 analytically  !
 ! D10   D(12,1,18,32)           0.0001         calculate D2E/DX2 analytically  !
 ! D11   D(12,2,11,3)           -0.0001         calculate D2E/DX2 analytically  !
 ! D12   D(12,2,11,13)         179.9999         calculate D2E/DX2 analytically  !
 ! D13   D(14,2,11,3)          180.0            calculate D2E/DX2 analytically  !
 ! D14   D(14,2,11,13)           0.0            calculate D2E/DX2 analytically  !
 ! D15   D(11,2,12,1)            0.0            calculate D2E/DX2 analytically  !
 ! D16   D(11,2,12,16)        -179.9999         calculate D2E/DX2 analytically  !
 ! D17   D(14,2,12,1)          179.9999         calculate D2E/DX2 analytically  !
 ! D18   D(14,2,12,16)           0.0            calculate D2E/DX2 analytically  !
 ! D19   D(11,2,14,8)            0.0001         calculate D2E/DX2 analytically  !
 ! D20   D(12,2,14,8)         -179.9998         calculate D2E/DX2 analytically  !
 ! D21   D(11,3,10,1)            0.0            calculate D2E/DX2 analytically  !
 ! D22   D(11,3,10,54)         180.0            calculate D2E/DX2 analytically  !
 ! D23   D(53,3,10,1)         -180.0            calculate D2E/DX2 analytically  !
 ! D24   D(53,3,10,54)           0.0            calculate D2E/DX2 analytically  !
 ! D25   D(10,3,11,2)            0.0001         calculate D2E/DX2 analytically  !
 ! D26   D(10,3,11,13)        -179.9999         calculate D2E/DX2 analytically  !
 ! D27   D(53,3,11,2)         -179.9999         calculate D2E/DX2 analytically  !
 ! D28   D(53,3,11,13)           0.0001         calculate D2E/DX2 analytically  !
 ! D29   D(9,4,7,6)              0.0002         calculate D2E/DX2 analytically  !
 ! D30   D(9,4,7,17)          -179.9998         calculate D2E/DX2 analytically  !
 ! D31   D(51,4,7,6)          -179.9999         calculate D2E/DX2 analytically  !
 ! D32   D(51,4,7,17)            0.0001         calculate D2E/DX2 analytically  !
 ! D33   D(7,4,9,5)              0.0            calculate D2E/DX2 analytically  !
 ! D34   D(7,4,9,52)          -180.0            calculate D2E/DX2 analytically  !
 ! D35   D(51,4,9,5)          -179.9999         calculate D2E/DX2 analytically  !
 ! D36   D(51,4,9,52)            0.0001         calculate D2E/DX2 analytically  !
 ! D37   D(9,5,8,6)              0.0002         calculate D2E/DX2 analytically  !
 ! D38   D(9,5,8,14)          -179.9999         calculate D2E/DX2 analytically  !
 ! D39   D(13,5,8,6)          -179.9999         calculate D2E/DX2 analytically  !
 ! D40   D(13,5,8,14)            0.0            calculate D2E/DX2 analytically  !
 ! D41   D(8,5,9,4)             -0.0002         calculate D2E/DX2 analytically  !
 ! D42   D(8,5,9,52)           179.9998         calculate D2E/DX2 analytically  !
 ! D43   D(13,5,9,4)           179.9999         calculate D2E/DX2 analytically  !
 ! D44   D(13,5,9,52)           -0.0001         calculate D2E/DX2 analytically  !
 ! D45   D(8,5,13,11)            0.0001         calculate D2E/DX2 analytically  !
 ! D46   D(9,5,13,11)         -179.9999         calculate D2E/DX2 analytically  !
 ! D47   D(8,6,7,4)             -0.0002         calculate D2E/DX2 analytically  !
 ! D48   D(8,6,7,17)           179.9998         calculate D2E/DX2 analytically  !
 ! D49   D(15,6,7,4)           180.0            calculate D2E/DX2 analytically  !
 ! D50   D(15,6,7,17)           -0.0001         calculate D2E/DX2 analytically  !
 ! D51   D(7,6,8,5)              0.0            calculate D2E/DX2 analytically  !
 ! D52   D(7,6,8,14)          -179.9999         calculate D2E/DX2 analytically  !
 ! D53   D(15,6,8,5)           179.9998         calculate D2E/DX2 analytically  !
 ! D54   D(15,6,8,14)            0.0            calculate D2E/DX2 analytically  !
 ! D55   D(7,6,15,22)            0.0001         calculate D2E/DX2 analytically  !
 ! D56   D(8,6,15,22)         -179.9997         calculate D2E/DX2 analytically  !
 ! D57   D(4,7,17,21)          179.9999         calculate D2E/DX2 analytically  !
 ! D58   D(6,7,17,21)           -0.0001         calculate D2E/DX2 analytically  !
 ! D59   D(5,8,14,2)            -0.0001         calculate D2E/DX2 analytically  !
 ! D60   D(6,8,14,2)           179.9997         calculate D2E/DX2 analytically  !
 ! D61   D(2,11,13,5)           -0.0001         calculate D2E/DX2 analytically  !
 ! D62   D(3,11,13,5)          179.9999         calculate D2E/DX2 analytically  !
 ! D63   D(1,12,16,27)          -0.0001         calculate D2E/DX2 analytically  !
 ! D64   D(2,12,16,27)         179.9998         calculate D2E/DX2 analytically  !
 ! D65   D(6,15,22,19)         179.9997         calculate D2E/DX2 analytically  !
 ! D66   D(6,15,22,21)           0.0            calculate D2E/DX2 analytically  !
 ! D67   D(12,16,27,30)       -179.9998         calculate D2E/DX2 analytically  !
 ! D68   D(12,16,27,32)          0.0001         calculate D2E/DX2 analytically  !
 ! D69   D(7,17,21,22)           0.0001         calculate D2E/DX2 analytically  !
 ! D70   D(7,17,21,23)        -179.9998         calculate D2E/DX2 analytically  !
 ! D71   D(1,18,32,27)          -0.0001         calculate D2E/DX2 analytically  !
 ! D72   D(1,18,32,28)         179.9999         calculate D2E/DX2 analytically  !
 ! D73   D(24,19,22,15)       -179.9998         calculate D2E/DX2 analytically  !
 ! D74   D(24,19,22,21)          0.0            calculate D2E/DX2 analytically  !
 ! D75   D(26,19,22,15)          0.0            calculate D2E/DX2 analytically  !
 ! D76   D(26,19,22,21)        179.9998         calculate D2E/DX2 analytically  !
 ! D77   D(22,19,24,20)         -0.0001         calculate D2E/DX2 analytically  !
 ! D78   D(22,19,24,25)        179.9999         calculate D2E/DX2 analytically  !
 ! D79   D(26,19,24,20)       -179.9999         calculate D2E/DX2 analytically  !
 ! D80   D(26,19,24,25)          0.0001         calculate D2E/DX2 analytically  !
 ! D81   D(22,19,26,43)       -179.9997         calculate D2E/DX2 analytically  !
 ! D82   D(24,19,26,43)          0.0001         calculate D2E/DX2 analytically  !
 ! D83   D(24,20,23,21)          0.0            calculate D2E/DX2 analytically  !
 ! D84   D(24,20,23,49)        179.9999         calculate D2E/DX2 analytically  !
 ! D85   D(50,20,23,21)       -180.0            calculate D2E/DX2 analytically  !
 ! D86   D(50,20,23,49)         -0.0001         calculate D2E/DX2 analytically  !
 ! D87   D(23,20,24,19)          0.0001         calculate D2E/DX2 analytically  !
 ! D88   D(23,20,24,25)       -179.9999         calculate D2E/DX2 analytically  !
 ! D89   D(50,20,24,19)       -179.9999         calculate D2E/DX2 analytically  !
 ! D90   D(50,20,24,25)          0.0001         calculate D2E/DX2 analytically  !
 ! D91   D(17,21,22,15)         -0.0001         calculate D2E/DX2 analytically  !
 ! D92   D(17,21,22,19)       -179.9999         calculate D2E/DX2 analytically  !
 ! D93   D(23,21,22,15)        179.9999         calculate D2E/DX2 analytically  !
 ! D94   D(23,21,22,19)          0.0001         calculate D2E/DX2 analytically  !
 ! D95   D(17,21,23,20)        179.9999         calculate D2E/DX2 analytically  !
 ! D96   D(17,21,23,49)          0.0            calculate D2E/DX2 analytically  !
 ! D97   D(22,21,23,20)         -0.0001         calculate D2E/DX2 analytically  !
 ! D98   D(22,21,23,49)       -180.0            calculate D2E/DX2 analytically  !
 ! D99   D(19,24,25,38)         -0.0001         calculate D2E/DX2 analytically  !
 ! D100  D(20,24,25,38)        179.9999         calculate D2E/DX2 analytically  !
 ! D101  D(24,25,38,41)       -179.9999         calculate D2E/DX2 analytically  !
 ! D102  D(24,25,38,43)          0.0001         calculate D2E/DX2 analytically  !
 ! D103  D(19,26,43,38)         -0.0001         calculate D2E/DX2 analytically  !
 ! D104  D(19,26,43,39)        179.9998         calculate D2E/DX2 analytically  !
 ! D105  D(16,27,30,29)        179.9998         calculate D2E/DX2 analytically  !
 ! D106  D(16,27,30,34)          0.0            calculate D2E/DX2 analytically  !
 ! D107  D(32,27,30,29)         -0.0001         calculate D2E/DX2 analytically  !
 ! D108  D(32,27,30,34)       -179.9999         calculate D2E/DX2 analytically  !
 ! D109  D(16,27,32,18)          0.0            calculate D2E/DX2 analytically  !
 ! D110  D(16,27,32,28)       -179.9999         calculate D2E/DX2 analytically  !
 ! D111  D(30,27,32,18)        179.9999         calculate D2E/DX2 analytically  !
 ! D112  D(30,27,32,28)         -0.0001         calculate D2E/DX2 analytically  !
 ! D113  D(32,28,31,29)          0.0            calculate D2E/DX2 analytically  !
 ! D114  D(32,28,31,56)        179.9999         calculate D2E/DX2 analytically  !
 ! D115  D(55,28,31,29)       -180.0            calculate D2E/DX2 analytically  !
 ! D116  D(55,28,31,56)         -0.0001         calculate D2E/DX2 analytically  !
 ! D117  D(31,28,32,18)       -179.9998         calculate D2E/DX2 analytically  !
 ! D118  D(31,28,32,27)          0.0002         calculate D2E/DX2 analytically  !
 ! D119  D(55,28,32,18)          0.0001         calculate D2E/DX2 analytically  !
 ! D120  D(55,28,32,27)       -179.9999         calculate D2E/DX2 analytically  !
 ! D121  D(31,29,30,27)          0.0002         calculate D2E/DX2 analytically  !
 ! D122  D(31,29,30,34)        180.0            calculate D2E/DX2 analytically  !
 ! D123  D(33,29,30,27)       -179.9998         calculate D2E/DX2 analytically  !
 ! D124  D(33,29,30,34)          0.0            calculate D2E/DX2 analytically  !
 ! D125  D(30,29,31,28)         -0.0001         calculate D2E/DX2 analytically  !
 ! D126  D(30,29,31,56)        180.0            calculate D2E/DX2 analytically  !
 ! D127  D(33,29,31,28)        179.9998         calculate D2E/DX2 analytically  !
 ! D128  D(33,29,31,56)         -0.0001         calculate D2E/DX2 analytically  !
 ! D129  D(30,29,33,44)          0.0001         calculate D2E/DX2 analytically  !
 ! D130  D(31,29,33,44)       -179.9999         calculate D2E/DX2 analytically  !
 ! D131  D(27,30,34,37)        179.9997         calculate D2E/DX2 analytically  !
 ! D132  D(29,30,34,37)         -0.0001         calculate D2E/DX2 analytically  !
 ! D133  D(29,33,44,35)        179.9999         calculate D2E/DX2 analytically  !
 ! D134  D(29,33,44,37)         -0.0001         calculate D2E/DX2 analytically  !
 ! D135  D(30,34,37,44)          0.0001         calculate D2E/DX2 analytically  !
 ! D136  D(30,34,37,45)       -179.9997         calculate D2E/DX2 analytically  !
 ! D137  D(46,35,44,33)       -179.9998         calculate D2E/DX2 analytically  !
 ! D138  D(46,35,44,37)          0.0001         calculate D2E/DX2 analytically  !
 ! D139  D(57,35,44,33)          0.0001         calculate D2E/DX2 analytically  !
 ! D140  D(57,35,44,37)       -179.9999         calculate D2E/DX2 analytically  !
 ! D141  D(44,35,46,36)          0.0            calculate D2E/DX2 analytically  !
 ! D142  D(44,35,46,58)       -180.0            calculate D2E/DX2 analytically  !
 ! D143  D(57,35,46,36)       -179.9999         calculate D2E/DX2 analytically  !
 ! D144  D(57,35,46,58)          0.0001         calculate D2E/DX2 analytically  !
 ! D145  D(46,36,45,37)          0.0001         calculate D2E/DX2 analytically  !
 ! D146  D(46,36,45,47)       -180.0            calculate D2E/DX2 analytically  !
 ! D147  D(48,36,45,37)       -179.9999         calculate D2E/DX2 analytically  !
 ! D148  D(48,36,45,47)          0.0            calculate D2E/DX2 analytically  !
 ! D149  D(45,36,46,35)         -0.0002         calculate D2E/DX2 analytically  !
 ! D150  D(45,36,46,58)        179.9999         calculate D2E/DX2 analytically  !
 ! D151  D(48,36,46,35)        179.9999         calculate D2E/DX2 analytically  !
 ! D152  D(48,36,46,58)         -0.0001         calculate D2E/DX2 analytically  !
 ! D153  D(45,36,48,42)          0.0001         calculate D2E/DX2 analytically  !
 ! D154  D(46,36,48,42)       -179.9999         calculate D2E/DX2 analytically  !
 ! D155  D(34,37,44,33)          0.0            calculate D2E/DX2 analytically  !
 ! D156  D(34,37,44,35)       -180.0            calculate D2E/DX2 analytically  !
 ! D157  D(45,37,44,33)        179.9998         calculate D2E/DX2 analytically  !
 ! D158  D(45,37,44,35)         -0.0001         calculate D2E/DX2 analytically  !
 ! D159  D(34,37,45,36)        179.9999         calculate D2E/DX2 analytically  !
 ! D160  D(34,37,45,47)          0.0            calculate D2E/DX2 analytically  !
 ! D161  D(44,37,45,36)          0.0            calculate D2E/DX2 analytically  !
 ! D162  D(44,37,45,47)       -179.9999         calculate D2E/DX2 analytically  !
 ! D163  D(25,38,41,40)        179.9998         calculate D2E/DX2 analytically  !
 ! D164  D(25,38,41,60)         -0.0002         calculate D2E/DX2 analytically  !
 ! D165  D(43,38,41,40)         -0.0002         calculate D2E/DX2 analytically  !
 ! D166  D(43,38,41,60)        179.9999         calculate D2E/DX2 analytically  !
 ! D167  D(25,38,43,26)          0.0001         calculate D2E/DX2 analytically  !
 ! D168  D(25,38,43,39)       -179.9999         calculate D2E/DX2 analytically  !
 ! D169  D(41,38,43,26)       -179.9999         calculate D2E/DX2 analytically  !
 ! D170  D(41,38,43,39)          0.0001         calculate D2E/DX2 analytically  !
 ! D171  D(43,39,42,40)         -0.0002         calculate D2E/DX2 analytically  !
 ! D172  D(43,39,42,48)        179.9998         calculate D2E/DX2 analytically  !
 ! D173  D(47,39,42,40)        179.9999         calculate D2E/DX2 analytically  !
 ! D174  D(47,39,42,48)         -0.0001         calculate D2E/DX2 analytically  !
 ! D175  D(42,39,43,26)       -179.9999         calculate D2E/DX2 analytically  !
 ! D176  D(42,39,43,38)          0.0            calculate D2E/DX2 analytically  !
 ! D177  D(47,39,43,26)          0.0            calculate D2E/DX2 analytically  !
 ! D178  D(47,39,43,38)        180.0            calculate D2E/DX2 analytically  !
 ! D179  D(42,39,47,45)          0.0002         calculate D2E/DX2 analytically  !
 ! D180  D(43,39,47,45)       -179.9997         calculate D2E/DX2 analytically  !
 ! D181  D(42,40,41,38)          0.0            calculate D2E/DX2 analytically  !
 ! D182  D(42,40,41,60)        180.0            calculate D2E/DX2 analytically  !
 ! D183  D(59,40,41,38)       -180.0            calculate D2E/DX2 analytically  !
 ! D184  D(59,40,41,60)          0.0            calculate D2E/DX2 analytically  !
 ! D185  D(41,40,42,39)          0.0001         calculate D2E/DX2 analytically  !
 ! D186  D(41,40,42,48)       -179.9999         calculate D2E/DX2 analytically  !
 ! D187  D(59,40,42,39)       -179.9999         calculate D2E/DX2 analytically  !
 ! D188  D(59,40,42,48)          0.0001         calculate D2E/DX2 analytically  !
 ! D189  D(39,42,48,36)         -0.0001         calculate D2E/DX2 analytically  !
 ! D190  D(40,42,48,36)        179.9999         calculate D2E/DX2 analytically  !
 ! D191  D(36,45,47,39)         -0.0001         calculate D2E/DX2 analytically  !
 ! D192  D(37,45,47,39)        179.9997         calculate D2E/DX2 analytically  !
 --------------------------------------------------------------------------------
 Trust Radius=3.00D-01 FncErr=1.00D-07 GrdErr=1.00D-07
 Number of steps in this run=      2 maximum allowed number of steps=      2.
 GradGradGradGradGradGradGradGradGradGradGradGradGradGradGradGradGradGrad

 Stoichiometry    C36H12N12
 Framework group  C1[X(C36H12N12)]
 Deg. of freedom   174
 Full point group                 C1      NOp   1
 Largest Abelian subgroup         C1      NOp   1
 Largest concise Abelian subgroup C1      NOp   1
                         Standard orientation:                         
 ---------------------------------------------------------------------
 Center     Atomic      Atomic             Coordinates (Angstroms)
 Number     Number       Type             X           Y           Z
 ---------------------------------------------------------------------
      1          6           0        4.428579   -2.295641    0.000001
      2          6           0        2.029578   -2.982471   -0.000008
      3          6           0        3.840711   -4.672332    0.000005
      4          6           0       -2.125855   -5.662330   -0.000002
      5          6           0        0.226230   -4.982963   -0.000003
      6          6           0       -1.568293   -3.248801   -0.000011
      7          6           0       -2.556099   -4.283425   -0.000005
      8          6           0       -0.154895   -3.604170   -0.000010
      9          6           0       -0.804883   -5.994434   -0.000001
     10          6           0        4.788862   -3.694477    0.000005
     11          6           0        2.431505   -4.355361   -0.000000
     12          6           0        3.044004   -1.936141   -0.000007
     13          7           0        1.521264   -5.345186    0.000001
     14          7           0        0.747337   -2.625712   -0.000014
     15          7           0       -1.900434   -1.959945   -0.000015
     16          7           0        2.647818   -0.665476   -0.000012
     17          7           0       -3.868524   -3.990261   -0.000001
     18          7           0        5.389887   -1.355362    0.000004
     19          6           0       -3.598022   -0.266404   -0.000009
     20          6           0       -5.966785   -0.990046    0.000006
     21          6           0       -4.202366   -2.687591   -0.000003
     22          6           0       -3.199023   -1.668116   -0.000011
     23          6           0       -5.593905   -2.300139    0.000004
     24          6           0       -4.987860    0.072056    0.000001
     25          7           0       -5.389887    1.355362    0.000005
     26          7           0       -2.647818    0.665476   -0.000012
     27          6           0        3.598021    0.266404   -0.000007
     28          6           0        5.966785    0.990047    0.000009
     29          6           0        4.202365    2.687592    0.000004
     30          6           0        3.199021    1.668116   -0.000006
     31          6           0        5.593905    2.300139    0.000010
     32          6           0        4.987860   -0.072057    0.000002
     33          7           0        3.868525    3.990261    0.000010
     34          7           0        1.900434    1.959945   -0.000012
     35          6           0        2.125855    5.662330    0.000014
     36          6           0       -0.226229    4.982962    0.000008
     37          6           0        1.568292    3.248802   -0.000004
     38          6           0       -4.428579    2.295641    0.000004
     39          6           0       -2.029577    2.982470   -0.000003
     40          6           0       -3.840711    4.672332    0.000012
     41          6           0       -4.788862    3.694477    0.000010
     42          6           0       -2.431504    4.355361    0.000007
     43          6           0       -3.044004    1.936140   -0.000004
     44          6           0        2.556098    4.283425    0.000006
     45          6           0        0.154896    3.604171   -0.000003
     46          6           0        0.804883    5.994434    0.000015
     47          7           0       -0.747337    2.625712   -0.000010
     48          7           0       -1.521264    5.345186    0.000012
     49          1           0       -6.329024   -3.098354    0.000010
     50          1           0       -7.012066   -0.698626    0.000012
     51          1           0       -2.900966   -6.421778    0.000002
     52          1           0       -0.480883   -7.030078    0.000001
     53          1           0        4.110817   -5.723323    0.000009
     54          1           0        5.847723   -3.931918    0.000010
     55          1           0        7.012066    0.698626    0.000013
     56          1           0        6.329024    3.098354    0.000018
     57          1           0        2.900967    6.421778    0.000021
     58          1           0        0.480883    7.030078    0.000021
     59          1           0       -4.110816    5.723323    0.000017
     60          1           0       -5.847723    3.931919    0.000014
 ---------------------------------------------------------------------
 Rotational constants (GHZ):      0.0694845      0.0694817      0.0347416
 Standard basis: 6-31G(d,p) (6D, 7F)
 There are   780 symmetry adapted cartesian basis functions of A   symmetry.
 There are   780 symmetry adapted basis functions of A   symmetry.
   780 basis functions,  1428 primitive gaussians,   780 cartesian basis functions
   156 alpha electrons      156 beta electrons
       nuclear repulsion energy      5333.4641378996 Hartrees.
 NAtoms=   60 NActive=   60 NUniq=   60 SFac= 1.00D+00 NAtFMM=   60 NAOKFM=T Big=T
 Integral buffers will be    131072 words long.
 Raffenetti 2 integral format.
 Two-electron integral symmetry is turned on.
 One-electron integrals computed using PRISM.
 NBasis=   780 RedAO= T EigKep=  2.21D-04  NBF=   780
 NBsUse=   780 1.00D-06 EigRej= -1.00D+00 NBFU=   780
 Initial guess from the checkpoint file:  "/scratch/tmp/3419170/Gau-179605.chk"
 B after Tr=    -0.000000   -0.000000    0.000000
         Rot=    1.000000    0.000000    0.000000   -0.000000 Ang=   0.00 deg.
 Requested convergence on RMS density matrix=1.00D-08 within  64 cycles.
 Requested convergence on MAX density matrix=1.00D-06.
 Requested convergence on             energy=1.00D-06.
 No special actions if energy rises.
 SCF Done:  E(RB3LYP) =  -2036.17371954     A.U. after    1 cycles
            NFock=  1  Conv=0.85D-08     -V/T= 2.0093
 QCSCF skips out because SCF is already converged.
 DoSCS=F DFT=T ScalE2(SS,OS)=  1.000000  1.000000
 Range of M.O.s used for correlation:     1   780
 NBasis=   780 NAE=   156 NBE=   156 NFC=     0 NFV=     0
 NROrb=    780 NOA=   156 NOB=   156 NVA=   624 NVB=   624
 PrsmSu:  requested number of processors reduced to:  27 ShMem   1 Linda.
 Symmetrizing basis deriv contribution to polar:
 IMax=3 JMax=2 DiffMx= 0.00D+00
 G2DrvN: will do    31 centers at a time, making    2 passes.
 Calling FoFCou, ICntrl=  3107 FMM=T I1Cent=   0 AccDes= 0.00D+00.
 Calling FoFCou, ICntrl=  3107 FMM=T I1Cent=   0 AccDes= 0.00D+00.
 End of G2Drv F.D. properties file   721 does not exist.
 End of G2Drv F.D. properties file   722 does not exist.
 End of G2Drv F.D. properties file   788 does not exist.
          IDoAtm=11111111111111111111111111111111111111111111111111
          IDoAtm=1111111111
          Differentiating once with respect to electric field.
                with respect to dipole field.
          Differentiating once with respect to nuclear coordinates.
 CalDSu exits because no D1Ps are significant.
          There are   183 degrees of freedom in the 1st order CPHF.  IDoFFX=6 NUNeed=     3.
    183 vectors produced by pass  0 Test12= 9.73D-14 1.00D-09 XBig12= 1.87D+03 2.18D+01.
 AX will form    96 AO Fock derivatives at one time.
    183 vectors produced by pass  1 Test12= 9.73D-14 1.00D-09 XBig12= 2.50D+02 1.93D+00.
    183 vectors produced by pass  2 Test12= 9.73D-14 1.00D-09 XBig12= 2.58D+00 2.53D-01.
    180 vectors produced by pass  3 Test12= 9.73D-14 1.00D-09 XBig12= 1.66D-02 1.91D-02.
    180 vectors produced by pass  4 Test12= 9.73D-14 1.00D-09 XBig12= 4.50D-05 4.94D-04.
    180 vectors produced by pass  5 Test12= 9.73D-14 1.00D-09 XBig12= 4.81D-08 2.03D-05.
     89 vectors produced by pass  6 Test12= 9.73D-14 1.00D-09 XBig12= 5.76D-11 7.46D-07.
      3 vectors produced by pass  7 Test12= 9.73D-14 1.00D-09 XBig12= 7.83D-14 2.06D-08.
      2 vectors produced by pass  8 Test12= 9.73D-14 1.00D-09 XBig12= 7.91D-16 1.49D-09.
 InvSVY:  IOpt=1 It=  1 EMax= 5.68D-14
 Solved reduced A of dimension  1183 with   183 vectors.
 Isotropic polarizability for W=    0.000000      578.47 Bohr**3.
 End of Minotr F.D. properties file   721 does not exist.
 End of Minotr F.D. properties file   722 does not exist.
 End of Minotr F.D. properties file   788 does not exist.

 **********************************************************************

            Population analysis using the SCF density.

 **********************************************************************

 Orbital symmetries:
       Occupied  (A) (A) (A) (A) (A) (A) (A) (A) (A) (A) (A) (A)
                 (A) (A) (A) (A) (A) (A) (A) (A) (A) (A) (A) (A)
                 (A) (A) (A) (A) (A) (A) (A) (A) (A) (A) (A) (A)
                 (A) (A) (A) (A) (A) (A) (A) (A) (A) (A) (A) (A)
                 (A) (A) (A) (A) (A) (A) (A) (A) (A) (A) (A) (A)
                 (A) (A) (A) (A) (A) (A) (A) (A) (A) (A) (A) (A)
                 (A) (A) (A) (A) (A) (A) (A) (A) (A) (A) (A) (A)
                 (A) (A) (A) (A) (A) (A) (A) (A) (A) (A) (A) (A)
                 (A) (A) (A) (A) (A) (A) (A) (A) (A) (A) (A) (A)
                 (A) (A) (A) (A) (A) (A) (A) (A) (A) (A) (A) (A)
                 (A) (A) (A) (A) (A) (A) (A) (A) (A) (A) (A) (A)
                 (A) (A) (A) (A) (A) (A) (A) (A) (A) (A) (A) (A)
                 (A) (A) (A) (A) (A) (A) (A) (A) (A) (A) (A) (A)
       Virtual   (A) (A) (A) (A) (A) (A) (A) (A) (A) (A) (A) (A)
                 (A) (A) (A) (A) (A) (A) (A) (A) (A) (A) (A) (A)
                 (A) (A) (A) (A) (A) (A) (A) (A) (A) (A) (A) (A)
                 (A) (A) (A) (A) (A) (A) (A) (A) (A) (A) (A) (A)
                 (A) (A) (A) (A) (A) (A) (A) (A) (A) (A) (A) (A)
                 (A) (A) (A) (A) (A) (A) (A) (A) (A) (A) (A) (A)
                 (A) (A) (A) (A) (A) (A) (A) (A) (A) (A) (A) (A)
                 (A) (A) (A) (A) (A) (A) (A) (A) (A) (A) (A) (A)
                 (A) (A) (A) (A) (A) (A) (A) (A) (A) (A) (A) (A)
                 (A) (A) (A) (A) (A) (A) (A) (A) (A) (A) (A) (A)
                 (A) (A) (A) (A) (A) (A) (A) (A) (A) (A) (A) (A)
                 (A) (A) (A) (A) (A) (A) (A) (A) (A) (A) (A) (A)
                 (A) (A) (A) (A) (A) (A) (A) (A) (A) (A) (A) (A)
                 (A) (A) (A) (A) (A) (A) (A) (A) (A) (A) (A) (A)
                 (A) (A) (A) (A) (A) (A) (A) (A) (A) (A) (A) (A)
                 (A) (A) (A) (A) (A) (A) (A) (A) (A) (A) (A) (A)
                 (A) (A) (A) (A) (A) (A) (A) (A) (A) (A) (A) (A)
                 (A) (A) (A) (A) (A) (A) (A) (A) (A) (A) (A) (A)
                 (A) (A) (A) (A) (A) (A) (A) (A) (A) (A) (A) (A)
                 (A) (A) (A) (A) (A) (A) (A) (A) (A) (A) (A) (A)
                 (A) (A) (A) (A) (A) (A) (A) (A) (A) (A) (A) (A)
                 (A) (A) (A) (A) (A) (A) (A) (A) (A) (A) (A) (A)
                 (A) (A) (A) (A) (A) (A) (A) (A) (A) (A) (A) (A)
                 (A) (A) (A) (A) (A) (A) (A) (A) (A) (A) (A) (A)
                 (A) (A) (A) (A) (A) (A) (A) (A) (A) (A) (A) (A)
                 (A) (A) (A) (A) (A) (A) (A) (A) (A) (A) (A) (A)
                 (A) (A) (A) (A) (A) (A) (A) (A) (A) (A) (A) (A)
                 (A) (A) (A) (A) (A) (A) (A) (A) (A) (A) (A) (A)
                 (A) (A) (A) (A) (A) (A) (A) (A) (A) (A) (A) (A)
                 (A) (A) (A) (A) (A) (A) (A) (A) (A) (A) (A) (A)
                 (A) (A) (A) (A) (A) (A) (A) (A) (A) (A) (A) (A)
                 (A) (A) (A) (A) (A) (A) (A) (A) (A) (A) (A) (A)
                 (A) (A) (A) (A) (A) (A) (A) (A) (A) (A) (A) (A)
                 (A) (A) (A) (A) (A) (A) (A) (A) (A) (A) (A) (A)
                 (A) (A) (A) (A) (A) (A) (A) (A) (A) (A) (A) (A)
                 (A) (A) (A) (A) (A) (A) (A) (A) (A) (A) (A) (A)
                 (A) (A) (A) (A) (A) (A) (A) (A) (A) (A) (A) (A)
                 (A) (A) (A) (A) (A) (A) (A) (A) (A) (A) (A) (A)
                 (A) (A) (A) (A) (A) (A) (A) (A) (A) (A) (A) (A)
                 (A) (A) (A) (A) (A) (A) (A) (A) (A) (A) (A) (A)
                 (A) (A) (A) (A) (A) (A) (A) (A) (A) (A) (A) (A)
                 (A) (A) (A) (A) (A) (A) (A) (A) (A) (A) (A) (A)
                 (A) (A) (A) (A) (A) (A) (A) (A) (A) (A) (A) (A)
                 (A) (A) (A) (A) (A) (A) (A) (A) (A) (A) (A) (A)
                 (A) (A) (A) (A) (A) (A) (A) (A) (A) (A) (A) (A)
                 (A) (A) (A) (A) (A) (A) (A) (A) (A) (A) (A) (A)
                 (A) (A) (A) (A) (A) (A) (A) (A) (A) (A) (A) (A)
                 (A) (A) (A) (A) (A) (A) (A) (A) (A) (A) (A) (A)
                 (A) (A) (A) (A) (A) (A) (A) (A) (A) (A) (A) (A)
                 (A) (A) (A) (A) (A) (A) (A) (A) (A) (A) (A) (A)
                 (A) (A) (A) (A) (A) (A) (A) (A) (A) (A) (A) (A)
                 (A) (A) (A) (A) (A) (A) (A) (A) (A) (A) (A) (A)
 The electronic state is 1-A.
 Alpha  occ. eigenvalues --  -14.35598 -14.35598 -14.35597 -14.35597 -14.35596
 Alpha  occ. eigenvalues --  -14.35596 -14.34941 -14.34941 -14.34939 -14.34939
 Alpha  occ. eigenvalues --  -14.34938 -14.34938 -10.25042 -10.25042 -10.25042
 Alpha  occ. eigenvalues --  -10.25042 -10.25041 -10.25041 -10.25041 -10.25041
 Alpha  occ. eigenvalues --  -10.25041 -10.25041 -10.25040 -10.25040 -10.24574
 Alpha  occ. eigenvalues --  -10.24574 -10.24574 -10.24574 -10.24573 -10.24573
 Alpha  occ. eigenvalues --  -10.24540 -10.24540 -10.24539 -10.24539 -10.24539
 Alpha  occ. eigenvalues --  -10.24539 -10.21626 -10.21626 -10.21625 -10.21625
 Alpha  occ. eigenvalues --  -10.21625 -10.21625 -10.21556 -10.21556 -10.21554
 Alpha  occ. eigenvalues --  -10.21554 -10.21554 -10.21554  -1.00615  -1.00041
 Alpha  occ. eigenvalues --   -1.00040  -0.98748  -0.98748  -0.98006  -0.93258
 Alpha  occ. eigenvalues --   -0.92840  -0.92840  -0.91666  -0.91666  -0.90598
 Alpha  occ. eigenvalues --   -0.87893  -0.86391  -0.86390  -0.83648  -0.83647
 Alpha  occ. eigenvalues --   -0.81499  -0.78587  -0.77734  -0.76729  -0.76728
 Alpha  occ. eigenvalues --   -0.75605  -0.75603  -0.71063  -0.71063  -0.69942
 Alpha  occ. eigenvalues --   -0.69940  -0.69679  -0.66259  -0.65997  -0.64254
 Alpha  occ. eigenvalues --   -0.64251  -0.64089  -0.64088  -0.63014  -0.59737
 Alpha  occ. eigenvalues --   -0.59715  -0.59714  -0.58099  -0.56386  -0.56385
 Alpha  occ. eigenvalues --   -0.55812  -0.55217  -0.55216  -0.52429  -0.52201
 Alpha  occ. eigenvalues --   -0.52201  -0.51472  -0.50969  -0.50967  -0.49197
 Alpha  occ. eigenvalues --   -0.48270  -0.48269  -0.47829  -0.47828  -0.46929
 Alpha  occ. eigenvalues --   -0.46767  -0.46082  -0.46081  -0.45399  -0.45396
 Alpha  occ. eigenvalues --   -0.45378  -0.43886  -0.43885  -0.43820  -0.43820
 Alpha  occ. eigenvalues --   -0.43297  -0.41780  -0.41710  -0.40982  -0.40982
 Alpha  occ. eigenvalues --   -0.39674  -0.39674  -0.38331  -0.38325  -0.38297
 Alpha  occ. eigenvalues --   -0.38296  -0.37522  -0.37297  -0.36572  -0.36572
 Alpha  occ. eigenvalues --   -0.35779  -0.35778  -0.34194  -0.34194  -0.32496
 Alpha  occ. eigenvalues --   -0.31906  -0.31710  -0.31707  -0.31461  -0.31460
 Alpha  occ. eigenvalues --   -0.30411  -0.30410  -0.30000  -0.27633  -0.27415
 Alpha  occ. eigenvalues --   -0.26682  -0.25920  -0.25349  -0.25346  -0.24873
 Alpha  occ. eigenvalues --   -0.24840  -0.24838  -0.24501  -0.24499  -0.23464
 Alpha  occ. eigenvalues --   -0.23462
 Alpha virt. eigenvalues --   -0.10112  -0.10110  -0.09909  -0.09908  -0.07548
 Alpha virt. eigenvalues --   -0.07415  -0.04021  -0.02117  -0.00856  -0.00855
 Alpha virt. eigenvalues --   -0.00468  -0.00466   0.03196   0.03198   0.03610
 Alpha virt. eigenvalues --    0.05727   0.05728   0.10036   0.10461   0.10665
 Alpha virt. eigenvalues --    0.10665   0.11092   0.11093   0.11299   0.12365
 Alpha virt. eigenvalues --    0.16780   0.16786   0.16787   0.16793   0.16793
 Alpha virt. eigenvalues --    0.17083   0.17083   0.17210   0.17428   0.18923
 Alpha virt. eigenvalues --    0.18926   0.21014   0.21014   0.21496   0.21498
 Alpha virt. eigenvalues --    0.22067   0.22350   0.22351   0.22476   0.22615
 Alpha virt. eigenvalues --    0.22686   0.23090   0.23097   0.24139   0.24143
 Alpha virt. eigenvalues --    0.26325   0.26739   0.26740   0.27356   0.28622
 Alpha virt. eigenvalues --    0.29171   0.29172   0.29934   0.29937   0.31002
 Alpha virt. eigenvalues --    0.31707   0.32004   0.32239   0.32240   0.33149
 Alpha virt. eigenvalues --    0.33153   0.35930   0.36000   0.36915   0.36916
 Alpha virt. eigenvalues --    0.38027   0.38029   0.38692   0.38751   0.38752
 Alpha virt. eigenvalues --    0.41734   0.42166   0.42169   0.42770   0.42771
 Alpha virt. eigenvalues --    0.43272   0.43274   0.43620   0.45454   0.46683
 Alpha virt. eigenvalues --    0.46685   0.47811   0.47939   0.48274   0.48276
 Alpha virt. eigenvalues --    0.48284   0.48286   0.48370   0.49130   0.49132
 Alpha virt. eigenvalues --    0.49388   0.49389   0.49589   0.49591   0.50830
 Alpha virt. eigenvalues --    0.51577   0.52962   0.53345   0.53377   0.53654
 Alpha virt. eigenvalues --    0.53657   0.53829   0.54232   0.54235   0.55423
 Alpha virt. eigenvalues --    0.55428   0.56036   0.56079   0.56236   0.56238
 Alpha virt. eigenvalues --    0.57210   0.57211   0.57514   0.57656   0.58039
 Alpha virt. eigenvalues --    0.58042   0.58454   0.58455   0.59348   0.59678
 Alpha virt. eigenvalues --    0.59681   0.59912   0.59913   0.60019   0.60718
 Alpha virt. eigenvalues --    0.60719   0.61199   0.61424   0.61539   0.61811
 Alpha virt. eigenvalues --    0.61816   0.61906   0.62222   0.62314   0.62568
 Alpha virt. eigenvalues --    0.62569   0.63034   0.63447   0.63450   0.64446
 Alpha virt. eigenvalues --    0.64447   0.64495   0.64497   0.64963   0.64964
 Alpha virt. eigenvalues --    0.65773   0.66788   0.66789   0.68315   0.68427
 Alpha virt. eigenvalues --    0.68430   0.70036   0.70037   0.72167   0.72920
 Alpha virt. eigenvalues --    0.72922   0.74488   0.75299   0.75472   0.76217
 Alpha virt. eigenvalues --    0.76219   0.76702   0.76835   0.77383   0.77387
 Alpha virt. eigenvalues --    0.78058   0.78059   0.78864   0.78865   0.80294
 Alpha virt. eigenvalues --    0.80295   0.81359   0.81702   0.81704   0.81715
 Alpha virt. eigenvalues --    0.82888   0.82891   0.83750   0.83980   0.83981
 Alpha virt. eigenvalues --    0.84733   0.84798   0.84824   0.84826   0.84962
 Alpha virt. eigenvalues --    0.84962   0.85578   0.85579   0.85599   0.85600
 Alpha virt. eigenvalues --    0.86677   0.86714   0.87555   0.87556   0.87790
 Alpha virt. eigenvalues --    0.87790   0.88188   0.88809   0.90207   0.90210
 Alpha virt. eigenvalues --    0.90780   0.91249   0.91891   0.93526   0.93529
 Alpha virt. eigenvalues --    0.93948   0.93952   0.94217   0.94266   0.97057
 Alpha virt. eigenvalues --    0.97061   0.97385   0.97806   0.97809   0.98362
 Alpha virt. eigenvalues --    0.98363   1.01176   1.01179   1.01294   1.01295
 Alpha virt. eigenvalues --    1.01802   1.02198   1.02663   1.03767   1.03768
 Alpha virt. eigenvalues --    1.04669   1.04673   1.05209   1.08282   1.11170
 Alpha virt. eigenvalues --    1.11176   1.11710   1.13122   1.13307   1.13310
 Alpha virt. eigenvalues --    1.14547   1.14821   1.14827   1.17013   1.18023
 Alpha virt. eigenvalues --    1.18282   1.19421   1.19423   1.19641   1.19642
 Alpha virt. eigenvalues --    1.19796   1.19796   1.20695   1.22351   1.22355
 Alpha virt. eigenvalues --    1.22403   1.22410   1.25169   1.25169   1.25602
 Alpha virt. eigenvalues --    1.25603   1.25816   1.26409   1.28683   1.28687
 Alpha virt. eigenvalues --    1.29471   1.29947   1.31783   1.31788   1.31909
 Alpha virt. eigenvalues --    1.32997   1.33390   1.33394   1.33674   1.33677
 Alpha virt. eigenvalues --    1.34736   1.35285   1.35286   1.35698   1.35699
 Alpha virt. eigenvalues --    1.36202   1.36202   1.36598   1.36719   1.36723
 Alpha virt. eigenvalues --    1.36938   1.37166   1.37334   1.37486   1.37547
 Alpha virt. eigenvalues --    1.37548   1.37755   1.37756   1.40103   1.42150
 Alpha virt. eigenvalues --    1.44767   1.44770   1.45620   1.46118   1.46131
 Alpha virt. eigenvalues --    1.46654   1.46659   1.47660   1.48186   1.48190
 Alpha virt. eigenvalues --    1.48729   1.49370   1.49371   1.50048   1.50477
 Alpha virt. eigenvalues --    1.50484   1.55892   1.61353   1.61358   1.63366
 Alpha virt. eigenvalues --    1.63376   1.64791   1.64966   1.65723   1.67181
 Alpha virt. eigenvalues --    1.67640   1.67644   1.68842   1.70240   1.70246
 Alpha virt. eigenvalues --    1.72495   1.72632   1.72635   1.73984   1.74204
 Alpha virt. eigenvalues --    1.74206   1.75087   1.75206   1.75222   1.75223
 Alpha virt. eigenvalues --    1.75395   1.75396   1.76114   1.76115   1.76531
 Alpha virt. eigenvalues --    1.76534   1.78809   1.79445   1.79587   1.80245
 Alpha virt. eigenvalues --    1.80978   1.80983   1.81211   1.81215   1.81759
 Alpha virt. eigenvalues --    1.81763   1.81881   1.82316   1.82317   1.82603
 Alpha virt. eigenvalues --    1.83536   1.83539   1.83900   1.83901   1.84591
 Alpha virt. eigenvalues --    1.85419   1.85420   1.86739   1.87764   1.87766
 Alpha virt. eigenvalues --    1.88407   1.89270   1.89270   1.89275   1.89508
 Alpha virt. eigenvalues --    1.89511   1.89512   1.89694   1.89697   1.91222
 Alpha virt. eigenvalues --    1.92567   1.92571   1.92710   1.92711   1.93503
 Alpha virt. eigenvalues --    1.93889   1.94017   1.94021   1.94188   1.94189
 Alpha virt. eigenvalues --    1.95572   1.95574   1.96672   1.96674   1.97745
 Alpha virt. eigenvalues --    1.97746   1.97888   1.98569   2.00078   2.00084
 Alpha virt. eigenvalues --    2.00084   2.10124   2.10685   2.10689   2.10811
 Alpha virt. eigenvalues --    2.10813   2.13277   2.13280   2.15666   2.15699
 Alpha virt. eigenvalues --    2.16109   2.16207   2.16210   2.16516   2.16517
 Alpha virt. eigenvalues --    2.16920   2.16923   2.17204   2.17431   2.17749
 Alpha virt. eigenvalues --    2.20254   2.20259   2.20390   2.21459   2.21461
 Alpha virt. eigenvalues --    2.21937   2.21942   2.22680   2.23184   2.23537
 Alpha virt. eigenvalues --    2.23543   2.26119   2.27846   2.27847   2.29918
 Alpha virt. eigenvalues --    2.29920   2.30209   2.30904   2.31764   2.31765
 Alpha virt. eigenvalues --    2.31897   2.31901   2.31920   2.31925   2.33053
 Alpha virt. eigenvalues --    2.33057   2.33946   2.34058   2.34322   2.35210
 Alpha virt. eigenvalues --    2.35214   2.35992   2.38554   2.39557   2.39558
 Alpha virt. eigenvalues --    2.39638   2.39737   2.39740   2.39967   2.40463
 Alpha virt. eigenvalues --    2.40469   2.44312   2.44314   2.44763   2.44765
 Alpha virt. eigenvalues --    2.44807   2.44810   2.45155   2.45814   2.46608
 Alpha virt. eigenvalues --    2.46611   2.46853   2.47063   2.52108   2.52196
 Alpha virt. eigenvalues --    2.52200   2.53603   2.55599   2.55602   2.56032
 Alpha virt. eigenvalues --    2.56033   2.56136   2.58079   2.58081   2.58118
 Alpha virt. eigenvalues --    2.58120   2.59096   2.59101   2.59130   2.60321
 Alpha virt. eigenvalues --    2.60757   2.61215   2.61221   2.61867   2.61873
 Alpha virt. eigenvalues --    2.61892   2.61892   2.62819   2.63226   2.64371
 Alpha virt. eigenvalues --    2.64875   2.65730   2.65871   2.65874   2.67802
 Alpha virt. eigenvalues --    2.68739   2.68742   2.69990   2.71616   2.71617
 Alpha virt. eigenvalues --    2.71718   2.71726   2.72771   2.72773   2.74012
 Alpha virt. eigenvalues --    2.74589   2.74952   2.78006   2.78008   2.79148
 Alpha virt. eigenvalues --    2.79150   2.80043   2.80047   2.80762   2.83034
 Alpha virt. eigenvalues --    2.83036   2.84162   2.84164   2.84364   2.84370
 Alpha virt. eigenvalues --    2.84928   2.85428   2.86981   2.86983   2.88267
 Alpha virt. eigenvalues --    2.89071   2.89078   2.89390   2.92141   2.96671
 Alpha virt. eigenvalues --    3.02577   3.02579   3.03184   3.03185   3.06777
 Alpha virt. eigenvalues --    3.10133   3.10141   3.10671   3.12860   3.12863
 Alpha virt. eigenvalues --    3.14269   3.14770   3.14771   3.15713   3.16040
 Alpha virt. eigenvalues --    3.16044   3.21521   3.22852   3.24860   3.26539
 Alpha virt. eigenvalues --    3.26542   3.26691   3.26693   3.27608   3.28598
 Alpha virt. eigenvalues --    3.28600   3.34201   3.37827   3.37830   3.44408
 Alpha virt. eigenvalues --    3.44410   3.47396   3.56443   3.56448   3.59978
 Alpha virt. eigenvalues --    3.69119   3.69124   3.69918   3.72347   3.72355
 Alpha virt. eigenvalues --    3.75178   3.95651   4.02613   4.02617   4.02754
 Alpha virt. eigenvalues --    4.04694   4.04695   4.05725   4.05728   4.06454
 Alpha virt. eigenvalues --    4.08233   4.08234   4.09035   4.14580   4.15571
 Alpha virt. eigenvalues --    4.15575   4.15720   4.15725   4.16569   4.17913
 Alpha virt. eigenvalues --    4.21515   4.21515   4.30833   4.30837   4.35457
 Alpha virt. eigenvalues --    4.41769   4.41772   4.43454   4.44096   4.44096
 Alpha virt. eigenvalues --    4.45262   4.46782   4.51577   4.51581   4.52227
 Alpha virt. eigenvalues --    4.52228   4.55451   4.65840   4.70569   4.70572
 Alpha virt. eigenvalues --    4.78387   4.78392   4.81877   4.82798   4.88032
 Alpha virt. eigenvalues --    4.88035   5.04486   5.04489   5.16972
          Condensed to atoms (all electrons):
 Mulliken charges:
               1
     1  C    0.274251
     2  C    0.244004
     3  C   -0.093602
     4  C   -0.093644
     5  C    0.274273
     6  C    0.244036
     7  C    0.274187
     8  C    0.243871
     9  C   -0.093574
    10  C   -0.093552
    11  C    0.274213
    12  C    0.243922
    13  N   -0.574310
    14  N   -0.502740
    15  N   -0.502617
    16  N   -0.502672
    17  N   -0.574229
    18  N   -0.574294
    19  C    0.243901
    20  C   -0.093596
    21  C    0.274341
    22  C    0.243909
    23  C   -0.093654
    24  C    0.274230
    25  N   -0.574294
    26  N   -0.502672
    27  C    0.243902
    28  C   -0.093596
    29  C    0.274341
    30  C    0.243909
    31  C   -0.093653
    32  C    0.274230
    33  N   -0.574229
    34  N   -0.502617
    35  C   -0.093644
    36  C    0.274273
    37  C    0.244036
    38  C    0.274251
    39  C    0.244004
    40  C   -0.093602
    41  C   -0.093552
    42  C    0.274213
    43  C    0.243922
    44  C    0.274187
    45  C    0.243871
    46  C   -0.093574
    47  N   -0.502740
    48  N   -0.574310
    49  H    0.113882
    50  H    0.113877
    51  H    0.113889
    52  H    0.113893
    53  H    0.113900
    54  H    0.113902
    55  H    0.113877
    56  H    0.113882
    57  H    0.113889
    58  H    0.113893
    59  H    0.113900
    60  H    0.113902
 Sum of Mulliken charges =  -0.00000
 Mulliken charges with hydrogens summed into heavy atoms:
               1
     1  C    0.274251
     2  C    0.244004
     3  C    0.020298
     4  C    0.020245
     5  C    0.274273
     6  C    0.244036
     7  C    0.274187
     8  C    0.243871
     9  C    0.020320
    10  C    0.020350
    11  C    0.274213
    12  C    0.243922
    13  N   -0.574310
    14  N   -0.502740
    15  N   -0.502617
    16  N   -0.502672
    17  N   -0.574229
    18  N   -0.574294
    19  C    0.243901
    20  C    0.020281
    21  C    0.274341
    22  C    0.243909
    23  C    0.020228
    24  C    0.274230
    25  N   -0.574294
    26  N   -0.502672
    27  C    0.243902
    28  C    0.020281
    29  C    0.274341
    30  C    0.243909
    31  C    0.020229
    32  C    0.274230
    33  N   -0.574229
    34  N   -0.502617
    35  C    0.020245
    36  C    0.274273
    37  C    0.244036
    38  C    0.274251
    39  C    0.244004
    40  C    0.020298
    41  C    0.020351
    42  C    0.274213
    43  C    0.243922
    44  C    0.274187
    45  C    0.243871
    46  C    0.020320
    47  N   -0.502740
    48  N   -0.574310
 APT charges:
               1
     1  C    0.119074
     2  C    0.066649
     3  C   -0.017823
     4  C   -0.017761
     5  C    0.118872
     6  C    0.066567
     7  C    0.118826
     8  C    0.066926
     9  C   -0.017740
    10  C   -0.017801
    11  C    0.119048
    12  C    0.066680
    13  N   -0.290297
    14  N   -0.126361
    15  N   -0.126191
    16  N   -0.126343
    17  N   -0.290108
    18  N   -0.290298
    19  C    0.066729
    20  C   -0.017785
    21  C    0.118801
    22  C    0.066630
    23  C   -0.017563
    24  C    0.118909
    25  N   -0.290296
    26  N   -0.126343
    27  C    0.066731
    28  C   -0.017785
    29  C    0.118803
    30  C    0.066630
    31  C   -0.017563
    32  C    0.118911
    33  N   -0.290109
    34  N   -0.126192
    35  C   -0.017761
    36  C    0.118870
    37  C    0.066567
    38  C    0.119074
    39  C    0.066649
    40  C   -0.017823
    41  C   -0.017802
    42  C    0.119049
    43  C    0.066681
    44  C    0.118825
    45  C    0.066926
    46  C   -0.017740
    47  N   -0.126361
    48  N   -0.290297
    49  H    0.040388
    50  H    0.040369
    51  H    0.040406
    52  H    0.040419
    53  H    0.040374
    54  H    0.040395
    55  H    0.040369
    56  H    0.040387
    57  H    0.040406
    58  H    0.040419
    59  H    0.040374
    60  H    0.040395
 Sum of APT charges =  -0.00001
 APT charges with hydrogens summed into heavy atoms:
               1
     1  C    0.119074
     2  C    0.066649
     3  C    0.022551
     4  C    0.022645
     5  C    0.118872
     6  C    0.066567
     7  C    0.118826
     8  C    0.066926
     9  C    0.022678
    10  C    0.022594
    11  C    0.119048
    12  C    0.066680
    13  N   -0.290297
    14  N   -0.126361
    15  N   -0.126191
    16  N   -0.126343
    17  N   -0.290108
    18  N   -0.290298
    19  C    0.066729
    20  C    0.022584
    21  C    0.118801
    22  C    0.066630
    23  C    0.022824
    24  C    0.118909
    25  N   -0.290296
    26  N   -0.126343
    27  C    0.066731
    28  C    0.022584
    29  C    0.118803
    30  C    0.066630
    31  C    0.022824
    32  C    0.118911
    33  N   -0.290109
    34  N   -0.126192
    35  C    0.022645
    36  C    0.118870
    37  C    0.066567
    38  C    0.119074
    39  C    0.066649
    40  C    0.022551
    41  C    0.022593
    42  C    0.119049
    43  C    0.066681
    44  C    0.118825
    45  C    0.066926
    46  C    0.022679
    47  N   -0.126361
    48  N   -0.290297
 Electronic spatial extent (au):  <R**2>=          27574.0855
 Charge=              0.0000 electrons
 Dipole moment (field-independent basis, Debye):
    X=              0.0000    Y=              0.0000    Z=              0.0000  Tot=              0.0000
 Quadrupole moment (field-independent basis, Debye-Ang):
   XX=           -235.8630   YY=           -235.8593   ZZ=           -262.5845
   XY=             -0.0035   XZ=              0.0000   YZ=              0.0000
 Traceless Quadrupole moment (field-independent basis, Debye-Ang):
   XX=              8.9059   YY=              8.9096   ZZ=            -17.8156
   XY=             -0.0035   XZ=              0.0000   YZ=              0.0000
 Octapole moment (field-independent basis, Debye-Ang**2):
  XXX=             -0.0000  YYY=              0.0001  ZZZ=             -0.0002  XYY=              0.0001
  XXY=             -0.0000  XXZ=              0.0004  XZZ=              0.0000  YZZ=             -0.0000
  YYZ=              0.0002  XYZ=              0.0001
 Hexadecapole moment (field-independent basis, Debye-Ang**3):
 XXXX=         -18117.1971 YYYY=         -18116.2640 ZZZZ=           -255.2255 XXXY=              0.0375
 XXXZ=             -0.0021 YYYX=             -0.2849 YYYZ=             -0.0084 ZZZX=             -0.0020
 ZZZY=             -0.0105 XXYY=          -6038.8990 XXZZ=          -3323.2995 YYZZ=          -3323.1583
 XXYZ=             -0.0033 YYXZ=             -0.0002 ZZXY=             -0.0114
 N-N= 5.333464137900D+03 E-N=-1.539420028169D+04  KE= 2.017504796724D+03
  Exact polarizability: 800.332   0.023 800.291   0.000   0.001 134.786
 Approx polarizability:1435.619   0.0691435.509   0.000   0.001 241.165
 Calling FoFJK, ICntrl=    100127 FMM=F ISym2X=0 I1Cent= 0 IOpClX= 0 NMat=1 NMatS=1 NMatT=0.
 Full mass-weighted force constant matrix:
 Low frequencies ---   -0.0018   -0.0014    0.0006    3.0878    6.3072    8.0271
 Low frequencies ---   38.8115   39.1904   46.3727
 Diagonal vibrational polarizability:
       12.7176651      12.7147587      40.7997820
 Harmonic frequencies (cm**-1), IR intensities (KM/Mole), Raman scattering
 activities (A**4/AMU), depolarization ratios for plane and unpolarized
 incident light, reduced masses (AMU), force constants (mDyne/A),
 and normal coordinates:
                      1                      2                      3
                      A                      A                      A
 Frequencies --     38.8115                39.1904                46.3727
 Red. masses --      7.2195                 7.2204                 7.0753
 Frc consts  --      0.0064                 0.0065                 0.0090
 IR Inten    --      0.0347                 0.0018                 1.8671
  Atom  AN      X      Y      Z        X      Y      Z        X      Y      Z
     1   6     0.00  -0.00  -0.09     0.00   0.00  -0.11     0.00  -0.00  -0.04
     2   6     0.00  -0.00  -0.10     0.00   0.00   0.00    -0.00   0.00   0.09
     3   6     0.00  -0.00  -0.20     0.00   0.00  -0.02     0.00  -0.00  -0.15
     4   6     0.00   0.00   0.10     0.00   0.00   0.20    -0.00  -0.00  -0.10
     5   6     0.00  -0.00  -0.04     0.00   0.00   0.14     0.00  -0.00  -0.03
     6   6     0.00   0.00   0.03     0.00   0.00   0.07     0.00   0.00   0.11
     7   6     0.00   0.00   0.11     0.00   0.00   0.11    -0.00  -0.00  -0.01
     8   6     0.00  -0.00  -0.03     0.00   0.00   0.08     0.00   0.00   0.10
     9   6     0.00  -0.00   0.02     0.00   0.00   0.22     0.00  -0.00  -0.11
    10   6     0.00  -0.00  -0.17     0.00   0.00  -0.10     0.00  -0.00  -0.15
    11   6     0.00  -0.00  -0.14     0.00   0.00   0.04     0.00  -0.00  -0.04
    12   6     0.00  -0.00  -0.08     0.00   0.00  -0.06    -0.00   0.00   0.09
    13   7     0.00  -0.00  -0.11     0.00   0.00   0.12     0.00  -0.00  -0.09
    14   7     0.00  -0.00  -0.05     0.00   0.00   0.02    -0.00   0.00   0.17
    15   7    -0.00  -0.00   0.01    -0.00  -0.00   0.01     0.00   0.00   0.18
    16   7     0.00  -0.00  -0.03     0.00   0.00  -0.04    -0.00   0.00   0.17
    17   7     0.00   0.00   0.17    -0.00   0.00   0.05    -0.00  -0.00  -0.05
    18   7     0.00  -0.00  -0.03     0.00   0.00  -0.16     0.00  -0.00  -0.09
    19   6     0.00   0.00   0.02    -0.00   0.00  -0.08     0.00   0.00   0.10
    20   6     0.00   0.00   0.14    -0.00   0.00  -0.17    -0.00   0.00  -0.10
    21   6     0.00   0.00   0.15    -0.00   0.00  -0.03     0.00  -0.00  -0.01
    22   6     0.00   0.00   0.06    -0.00   0.00  -0.03     0.00   0.00   0.11
    23   6     0.00   0.00   0.20    -0.00   0.00  -0.11    -0.00   0.00  -0.10
    24   6     0.00   0.00   0.04    -0.00   0.00  -0.14    -0.00   0.00  -0.02
    25   7    -0.00   0.00  -0.03    -0.00   0.00  -0.16    -0.00   0.00  -0.09
    26   7    -0.00   0.00  -0.03    -0.00   0.00  -0.04     0.00  -0.00   0.17
    27   6     0.00  -0.00   0.02     0.00   0.00  -0.08    -0.00  -0.00   0.10
    28   6    -0.00  -0.00   0.14     0.00   0.00  -0.17     0.00   0.00  -0.10
    29   6    -0.00  -0.00   0.15     0.00  -0.00  -0.03     0.00   0.00  -0.01
    30   6    -0.00  -0.00   0.06     0.00   0.00  -0.03    -0.00  -0.00   0.11
    31   6    -0.00  -0.00   0.20     0.00  -0.00  -0.11     0.00   0.00  -0.10
    32   6    -0.00  -0.00   0.04     0.00   0.00  -0.14     0.00  -0.00  -0.02
    33   7    -0.00  -0.00   0.17     0.00  -0.00   0.05     0.00   0.00  -0.05
    34   7     0.00   0.00   0.01     0.00   0.00   0.01    -0.00  -0.00   0.18
    35   6    -0.00  -0.00   0.10    -0.00  -0.00   0.20    -0.00   0.00  -0.10
    36   6    -0.00   0.00  -0.04    -0.00  -0.00   0.14    -0.00   0.00  -0.03
    37   6    -0.00  -0.00   0.03    -0.00  -0.00   0.07    -0.00  -0.00   0.11
    38   6    -0.00   0.00  -0.09    -0.00   0.00  -0.11    -0.00   0.00  -0.04
    39   6    -0.00   0.00  -0.10    -0.00  -0.00   0.00     0.00  -0.00   0.09
    40   6    -0.00   0.00  -0.20    -0.00  -0.00  -0.02    -0.00   0.00  -0.15
    41   6    -0.00   0.00  -0.17    -0.00   0.00  -0.10    -0.00   0.00  -0.15
    42   6    -0.00   0.00  -0.14    -0.00  -0.00   0.04    -0.00   0.00  -0.04
    43   6    -0.00   0.00  -0.08    -0.00   0.00  -0.06     0.00  -0.00   0.09
    44   6    -0.00  -0.00   0.11    -0.00  -0.00   0.11     0.00   0.00  -0.01
    45   6    -0.00   0.00  -0.03    -0.00  -0.00   0.08    -0.00  -0.00   0.10
    46   6    -0.00  -0.00   0.02    -0.00  -0.00   0.22    -0.00   0.00  -0.11
    47   7    -0.00   0.00  -0.05    -0.00  -0.00   0.02     0.00  -0.00   0.17
    48   7    -0.00   0.00  -0.11    -0.00  -0.00   0.12    -0.00   0.00  -0.09
    49   1     0.00   0.00   0.27    -0.00   0.00  -0.12    -0.00   0.00  -0.17
    50   1     0.00   0.00   0.17    -0.00   0.00  -0.23    -0.00  -0.00  -0.19
    51   1     0.00   0.00   0.16     0.00   0.00   0.25     0.00  -0.00  -0.17
    52   1     0.00  -0.00   0.01     0.00   0.00   0.28     0.00  -0.00  -0.19
    53   1     0.00  -0.00  -0.24     0.00   0.00   0.00     0.00  -0.00  -0.24
    54   1     0.00  -0.00  -0.20     0.00   0.00  -0.14     0.00  -0.00  -0.24
    55   1    -0.00  -0.00   0.17     0.00   0.00  -0.23     0.00   0.00  -0.19
    56   1    -0.00  -0.00   0.27     0.00  -0.00  -0.12     0.00  -0.00  -0.17
    57   1    -0.00  -0.00   0.16    -0.00  -0.00   0.25    -0.00   0.00  -0.17
    58   1    -0.00  -0.00   0.01    -0.00  -0.00   0.28     0.00   0.00  -0.19
    59   1    -0.00   0.00  -0.24    -0.00  -0.00   0.00    -0.00   0.00  -0.24
    60   1    -0.00   0.00  -0.20    -0.00   0.00  -0.14    -0.00   0.00  -0.24
                      4                      5                      6
                      A                      A                      A
 Frequencies --     74.9144                83.8341                84.2476
 Red. masses --      5.5243                 7.8363                 7.8126
 Frc consts  --      0.0183                 0.0324                 0.0327
 IR Inten    --      0.0000                 0.0000                 0.0000
  Atom  AN      X      Y      Z        X      Y      Z        X      Y      Z
     1   6    -0.00   0.00   0.07     0.00   0.00  -0.00     0.00  -0.00   0.00
     2   6    -0.00   0.00   0.05     0.00   0.00   0.08    -0.00   0.00   0.16
     3   6    -0.00   0.00   0.16     0.00  -0.00  -0.04     0.00  -0.00  -0.14
     4   6    -0.00  -0.00  -0.17    -0.00  -0.00  -0.13    -0.00   0.00  -0.02
     5   6    -0.00  -0.00  -0.07     0.00  -0.00   0.01    -0.00  -0.00   0.01
     6   6    -0.00  -0.00  -0.04     0.00   0.00   0.18    -0.00   0.00   0.02
     7   6     0.00  -0.00  -0.07    -0.00  -0.00   0.01    -0.00   0.00   0.01
     8   6    -0.00  -0.00  -0.03     0.00   0.00   0.16    -0.00   0.00   0.09
     9   6    -0.00  -0.00  -0.17     0.00  -0.00  -0.13    -0.00  -0.00  -0.03
    10   6    -0.00   0.00   0.16     0.00   0.00  -0.03     0.00  -0.00  -0.15
    11   6    -0.00   0.00   0.07     0.00  -0.00   0.01     0.00  -0.00   0.00
    12   6    -0.00   0.00   0.05     0.00   0.00   0.00    -0.00   0.00   0.18
    13   7    -0.00  -0.00  -0.00     0.00  -0.00  -0.04     0.00  -0.00  -0.04
    14   7    -0.00   0.00   0.01    -0.00   0.00   0.20    -0.00   0.00   0.21
    15   7    -0.00   0.00  -0.00     0.00   0.00   0.28    -0.00  -0.00  -0.06
    16   7    -0.00   0.00   0.01     0.00   0.00  -0.08    -0.00   0.00   0.27
    17   7     0.00  -0.00   0.00    -0.00  -0.00  -0.06     0.00   0.00   0.01
    18   7     0.00   0.00  -0.00    -0.00   0.00   0.01     0.00  -0.00  -0.05
    19   6     0.00   0.00   0.03     0.00   0.00   0.11    -0.00   0.00  -0.16
    20   6     0.00   0.00   0.17    -0.00   0.00  -0.09     0.00   0.00   0.09
    21   6     0.00  -0.00   0.07    -0.00  -0.00   0.00     0.00   0.00  -0.01
    22   6     0.00   0.00   0.04     0.00   0.00   0.16    -0.00   0.00  -0.10
    23   6     0.00   0.00   0.17    -0.00  -0.00  -0.11     0.00   0.00   0.08
    24   6     0.00   0.00   0.07    -0.00   0.00   0.01     0.00   0.00  -0.01
    25   7     0.00   0.00   0.00    -0.00   0.00  -0.01     0.00  -0.00   0.05
    26   7    -0.00   0.00  -0.01     0.00  -0.00   0.08    -0.00   0.00  -0.27
    27   6     0.00   0.00  -0.03     0.00   0.00  -0.11    -0.00  -0.00   0.16
    28   6     0.00   0.00  -0.17    -0.00  -0.00   0.09     0.00   0.00  -0.09
    29   6     0.00   0.00  -0.07    -0.00  -0.00  -0.00    -0.00   0.00   0.01
    30   6     0.00   0.00  -0.04     0.00   0.00  -0.16    -0.00  -0.00   0.10
    31   6     0.00   0.00  -0.17    -0.00  -0.00   0.11     0.00   0.00  -0.08
    32   6     0.00   0.00  -0.07    -0.00   0.00  -0.01     0.00  -0.00   0.01
    33   7     0.00  -0.00  -0.00    -0.00  -0.00   0.06    -0.00   0.00  -0.01
    34   7    -0.00  -0.00   0.00     0.00   0.00  -0.28    -0.00  -0.00   0.06
    35   6    -0.00  -0.00   0.17    -0.00  -0.00   0.13    -0.00  -0.00   0.02
    36   6    -0.00  -0.00   0.07     0.00  -0.00  -0.01    -0.00  -0.00  -0.01
    37   6    -0.00  -0.00   0.04     0.00   0.00  -0.18    -0.00   0.00  -0.02
    38   6    -0.00   0.00  -0.07     0.00   0.00   0.00     0.00  -0.00  -0.00
    39   6    -0.00   0.00  -0.05     0.00   0.00  -0.08    -0.00   0.00  -0.16
    40   6    -0.00   0.00  -0.16     0.00  -0.00   0.04     0.00  -0.00   0.14
    41   6    -0.00   0.00  -0.16     0.00   0.00   0.03     0.00  -0.00   0.15
    42   6    -0.00   0.00  -0.07     0.00  -0.00  -0.01     0.00  -0.00  -0.00
    43   6    -0.00   0.00  -0.05     0.00   0.00  -0.00    -0.00   0.00  -0.18
    44   6    -0.00  -0.00   0.07    -0.00  -0.00  -0.01    -0.00   0.00  -0.01
    45   6    -0.00  -0.00   0.03     0.00   0.00  -0.16    -0.00   0.00  -0.09
    46   6    -0.00  -0.00   0.17    -0.00  -0.00   0.13    -0.00  -0.00   0.03
    47   7    -0.00   0.00  -0.01    -0.00   0.00  -0.20    -0.00   0.00  -0.21
    48   7    -0.00  -0.00   0.00     0.00  -0.00   0.04    -0.00  -0.00   0.04
    49   1     0.00   0.00   0.23    -0.00   0.00  -0.21     0.00   0.00   0.15
    50   1     0.00   0.00   0.23    -0.00  -0.00  -0.18     0.00   0.00   0.18
    51   1    -0.00  -0.00  -0.23     0.00  -0.00  -0.26    -0.00   0.00  -0.04
    52   1    -0.00  -0.00  -0.23    -0.00  -0.00  -0.24    -0.00  -0.00  -0.08
    53   1    -0.00   0.00   0.21     0.00  -0.00  -0.08     0.00  -0.00  -0.27
    54   1    -0.00   0.00   0.21     0.00   0.00  -0.05     0.00  -0.00  -0.28
    55   1     0.00   0.00  -0.23    -0.00  -0.00   0.18     0.00   0.00  -0.18
    56   1     0.00   0.00  -0.23    -0.00  -0.00   0.21     0.00   0.00  -0.15
    57   1    -0.00  -0.00   0.23    -0.00  -0.00   0.26    -0.00  -0.00   0.04
    58   1    -0.00  -0.00   0.23    -0.00  -0.00   0.24    -0.00  -0.00   0.08
    59   1    -0.00   0.00  -0.21     0.00  -0.00   0.08     0.00  -0.00   0.27
    60   1    -0.00   0.00  -0.21     0.00   0.00   0.05     0.00  -0.00   0.28
                      7                      8                      9
                      A                      A                      A
 Frequencies --    106.6479               137.3165               137.4984
 Red. masses --      9.1693                10.5314                10.5306
 Frc consts  --      0.0614                 0.1170                 0.1173
 IR Inten    --      0.0000                 0.0000                 0.0000
  Atom  AN      X      Y      Z        X      Y      Z        X      Y      Z
     1   6     0.00  -0.00  -0.15     0.13  -0.09  -0.00    -0.08  -0.03   0.00
     2   6    -0.00   0.00   0.05     0.13  -0.08  -0.00    -0.00  -0.13  -0.00
     3   6    -0.00   0.00   0.09     0.10  -0.09   0.00     0.03  -0.08   0.00
     4   6    -0.00  -0.00  -0.09     0.06   0.12  -0.00     0.00  -0.08   0.00
     5   6    -0.00   0.00   0.15     0.06   0.04  -0.00     0.02  -0.16  -0.00
     6   6    -0.00  -0.00  -0.05     0.10   0.13   0.00     0.06  -0.10  -0.00
     7   6    -0.00  -0.00  -0.15     0.10   0.13   0.00     0.04  -0.07   0.00
     8   6    -0.00   0.00   0.04     0.10   0.06   0.00     0.02  -0.16  -0.00
     9   6    -0.00   0.00   0.09     0.04   0.07  -0.00    -0.01  -0.14   0.00
    10   6     0.00  -0.00  -0.09     0.12  -0.10   0.00    -0.02  -0.02   0.00
    11   6    -0.00   0.00   0.15     0.10  -0.08   0.00     0.02  -0.13  -0.00
    12   6     0.00  -0.00  -0.05     0.14  -0.11  -0.00    -0.07  -0.07   0.00
    13   7    -0.00   0.00   0.23     0.05  -0.03  -0.00     0.03  -0.15  -0.00
    14   7     0.00  -0.00   0.02     0.15  -0.00  -0.00     0.00  -0.16  -0.00
    15   7     0.00   0.00  -0.03     0.08   0.14   0.00     0.13  -0.07   0.00
    16   7    -0.00  -0.00  -0.02     0.08  -0.13  -0.00    -0.14  -0.08   0.00
    17   7    -0.00  -0.00  -0.22     0.10   0.12   0.00     0.06   0.00   0.00
    18   7     0.00  -0.00  -0.23     0.10  -0.05  -0.00    -0.12   0.00   0.00
    19   6     0.00  -0.00   0.04    -0.03   0.10  -0.00     0.17   0.03   0.00
    20   6     0.00  -0.00   0.09    -0.00   0.03  -0.00     0.15   0.03  -0.00
    21   6    -0.00  -0.00  -0.15     0.08   0.11   0.00     0.12   0.02  -0.00
    22   6    -0.00  -0.00  -0.05     0.06   0.12   0.00     0.15   0.00   0.00
    23   6    -0.00  -0.00  -0.09     0.06   0.05  -0.00     0.13   0.03  -0.00
    24   6     0.00  -0.00   0.14    -0.05   0.07  -0.00     0.16   0.02   0.00
    25   7     0.00  -0.00   0.23    -0.10   0.05  -0.00     0.12  -0.00   0.00
    26   7    -0.00   0.00   0.02    -0.08   0.13  -0.00     0.14   0.08   0.00
    27   6     0.00  -0.00  -0.04     0.03  -0.10  -0.00    -0.17  -0.03   0.00
    28   6     0.00  -0.00  -0.09     0.00  -0.03  -0.00    -0.15  -0.03  -0.00
    29   6    -0.00  -0.00   0.15    -0.08  -0.11   0.00    -0.12  -0.02  -0.00
    30   6    -0.00  -0.00   0.05    -0.06  -0.12   0.00    -0.15  -0.00   0.00
    31   6    -0.00  -0.00   0.09    -0.06  -0.05  -0.00    -0.13  -0.03  -0.00
    32   6     0.00  -0.00  -0.14     0.05  -0.07  -0.00    -0.16  -0.02   0.00
    33   7    -0.00  -0.00   0.22    -0.10  -0.12   0.00    -0.06  -0.00   0.00
    34   7    -0.00  -0.00   0.03    -0.08  -0.14   0.00    -0.13   0.07   0.00
    35   6    -0.00  -0.00   0.09    -0.06  -0.12  -0.00    -0.00   0.08   0.00
    36   6    -0.00   0.00  -0.15    -0.06  -0.04  -0.00    -0.02   0.16  -0.00
    37   6    -0.00  -0.00   0.05    -0.10  -0.13   0.00    -0.06   0.10  -0.00
    38   6     0.00  -0.00   0.15    -0.13   0.09  -0.00     0.08   0.03   0.00
    39   6    -0.00   0.00  -0.05    -0.13   0.08  -0.00     0.00   0.13  -0.00
    40   6    -0.00   0.00  -0.09    -0.10   0.09   0.00    -0.03   0.08   0.00
    41   6     0.00  -0.00   0.09    -0.12   0.10   0.00     0.02   0.02   0.00
    42   6    -0.00   0.00  -0.15    -0.10   0.08   0.00    -0.02   0.13  -0.00
    43   6     0.00  -0.00   0.05    -0.14   0.11  -0.00     0.07   0.07   0.00
    44   6    -0.00  -0.00   0.15    -0.10  -0.13   0.00    -0.04   0.07   0.00
    45   6    -0.00   0.00  -0.04    -0.10  -0.06   0.00    -0.02   0.16  -0.00
    46   6    -0.00   0.00  -0.09    -0.04  -0.07  -0.00     0.01   0.14   0.00
    47   7    -0.00   0.00  -0.02    -0.15   0.00  -0.00    -0.00   0.16  -0.00
    48   7    -0.00   0.00  -0.23    -0.05   0.03  -0.00    -0.03   0.15  -0.00
    49   1    -0.00  -0.00  -0.16     0.11   0.02  -0.00     0.13   0.04  -0.00
    50   1     0.00  -0.00   0.16    -0.02  -0.02  -0.00     0.16   0.05  -0.00
    51   1    -0.00  -0.00  -0.16     0.03   0.16  -0.00    -0.02  -0.06   0.00
    52   1    -0.00   0.00   0.17     0.01   0.06  -0.00    -0.05  -0.15   0.00
    53   1    -0.00   0.00   0.16     0.10  -0.09   0.00     0.08  -0.06   0.00
    54   1     0.00  -0.00  -0.16     0.12  -0.12   0.00    -0.01   0.03   0.00
    55   1     0.00  -0.00  -0.16     0.02   0.02  -0.00    -0.16  -0.05  -0.00
    56   1    -0.00  -0.00   0.16    -0.11  -0.02  -0.00    -0.13  -0.04  -0.00
    57   1    -0.00  -0.00   0.16    -0.03  -0.16  -0.00     0.02   0.06   0.00
    58   1    -0.00   0.00  -0.17    -0.01  -0.06  -0.00     0.05   0.15   0.00
    59   1    -0.00   0.00  -0.16    -0.10   0.09   0.00    -0.08   0.06   0.00
    60   1     0.00  -0.00   0.16    -0.12   0.12   0.00     0.01  -0.03   0.00
                     10                     11                     12
                      A                      A                      A
 Frequencies --    145.9440               146.7464               181.2412
 Red. masses --      6.0029                 6.0075                10.2213
 Frc consts  --      0.0753                 0.0762                 0.1978
 IR Inten    --      0.0000                 0.0000                 0.0000
  Atom  AN      X      Y      Z        X      Y      Z        X      Y      Z
     1   6    -0.00  -0.00  -0.12    -0.00   0.00  -0.01    -0.00   0.00  -0.05
     2   6    -0.00  -0.00   0.06    -0.00   0.00  -0.06    -0.00   0.00  -0.21
     3   6     0.00  -0.00   0.07    -0.00   0.00   0.16    -0.00   0.00  -0.00
     4   6    -0.00  -0.00  -0.18    -0.00  -0.00  -0.02    -0.00  -0.00  -0.08
     5   6     0.00  -0.00   0.07    -0.00  -0.00  -0.10    -0.00   0.00   0.11
     6   6     0.00  -0.00   0.02    -0.00  -0.00   0.08    -0.00  -0.00   0.15
     7   6     0.00  -0.00  -0.06    -0.00  -0.00   0.11    -0.00  -0.00  -0.06
     8   6    -0.00  -0.00   0.09    -0.00  -0.00  -0.02    -0.00  -0.00   0.07
     9   6    -0.00  -0.00  -0.09    -0.00  -0.00  -0.15    -0.00  -0.00   0.08
    10   6    -0.00  -0.00  -0.08    -0.00   0.00   0.16    -0.00   0.00   0.00
    11   6    -0.00  -0.00   0.12    -0.00   0.00  -0.00    -0.00   0.00  -0.06
    12   6    -0.00  -0.00  -0.06    -0.00   0.00  -0.06    -0.00   0.00  -0.21
    13   7     0.00  -0.00   0.14    -0.00   0.00  -0.08    -0.00   0.00   0.08
    14   7    -0.00  -0.00   0.10    -0.00   0.00  -0.05    -0.00  -0.00  -0.14
    15   7     0.00  -0.00  -0.00    -0.00  -0.00   0.11    -0.00  -0.00   0.30
    16   7    -0.00  -0.00  -0.09    -0.00   0.00  -0.06     0.00   0.00  -0.16
    17   7     0.00  -0.00  -0.01    -0.00  -0.00   0.16    -0.00  -0.00  -0.17
    18   7    -0.00   0.00  -0.14    -0.00   0.00  -0.09    -0.00   0.00   0.09
    19   6     0.00   0.00  -0.08    -0.00  -0.00  -0.03    -0.00  -0.00   0.05
    20   6     0.00   0.00   0.10    -0.00  -0.00  -0.14     0.00  -0.00   0.09
    21   6     0.00   0.00   0.05    -0.00  -0.00   0.11    -0.00  -0.00  -0.06
    22   6     0.00  -0.00  -0.03    -0.00  -0.00   0.08    -0.00  -0.00   0.14
    23   6     0.00   0.00   0.18    -0.00  -0.00  -0.01    -0.00  -0.00  -0.09
    24   6     0.00   0.00  -0.06    -0.00  -0.00  -0.10     0.00  -0.00   0.11
    25   7     0.00   0.00  -0.14     0.00  -0.00  -0.09     0.00  -0.00   0.09
    26   7     0.00   0.00  -0.09     0.00  -0.00  -0.06    -0.00  -0.00  -0.16
    27   6    -0.00  -0.00  -0.08     0.00   0.00  -0.03     0.00   0.00   0.05
    28   6    -0.00  -0.00   0.10     0.00   0.00  -0.14    -0.00   0.00   0.09
    29   6    -0.00  -0.00   0.05     0.00   0.00   0.11     0.00   0.00  -0.06
    30   6    -0.00   0.00  -0.03     0.00   0.00   0.08     0.00   0.00   0.14
    31   6    -0.00  -0.00   0.18     0.00   0.00  -0.01     0.00   0.00  -0.09
    32   6    -0.00  -0.00  -0.06     0.00   0.00  -0.10    -0.00   0.00   0.11
    33   7    -0.00   0.00  -0.01     0.00   0.00   0.16     0.00   0.00  -0.17
    34   7    -0.00   0.00  -0.00     0.00   0.00   0.11     0.00  -0.00   0.30
    35   6     0.00   0.00  -0.18     0.00   0.00  -0.02     0.00   0.00  -0.08
    36   6    -0.00   0.00   0.07     0.00   0.00  -0.10     0.00  -0.00   0.11
    37   6    -0.00   0.00   0.02     0.00   0.00   0.08     0.00   0.00   0.15
    38   6     0.00   0.00  -0.12     0.00  -0.00  -0.01     0.00  -0.00  -0.05
    39   6     0.00   0.00   0.06     0.00  -0.00  -0.06     0.00  -0.00  -0.21
    40   6    -0.00   0.00   0.07     0.00  -0.00   0.16     0.00  -0.00  -0.00
    41   6     0.00   0.00  -0.08     0.00  -0.00   0.16     0.00  -0.00   0.00
    42   6     0.00   0.00   0.12     0.00  -0.00  -0.00     0.00  -0.00  -0.06
    43   6     0.00   0.00  -0.06     0.00  -0.00  -0.06     0.00  -0.00  -0.21
    44   6    -0.00   0.00  -0.06     0.00   0.00   0.11     0.00   0.00  -0.06
    45   6     0.00   0.00   0.09     0.00   0.00  -0.02     0.00  -0.00   0.07
    46   6     0.00   0.00  -0.09     0.00   0.00  -0.15     0.00  -0.00   0.08
    47   7     0.00   0.00   0.10     0.00  -0.00  -0.05     0.00   0.00  -0.14
    48   7    -0.00   0.00   0.14     0.00  -0.00  -0.08     0.00  -0.00   0.08
    49   1     0.00   0.00   0.31    -0.00  -0.00  -0.01    -0.00  -0.00  -0.20
    50   1     0.00   0.00   0.18    -0.00   0.00  -0.25     0.00  -0.00   0.12
    51   1    -0.00  -0.00  -0.31    -0.00  -0.00  -0.03    -0.00  -0.00  -0.19
    52   1    -0.00  -0.00  -0.16     0.00  -0.00  -0.26    -0.00   0.00   0.10
    53   1     0.00  -0.00   0.12    -0.00   0.00   0.28    -0.00   0.00   0.08
    54   1    -0.00   0.00  -0.14    -0.00   0.00   0.27    -0.00   0.00   0.09
    55   1    -0.00  -0.00   0.18     0.00   0.00  -0.25    -0.00  -0.00   0.12
    56   1    -0.00  -0.00   0.31     0.00   0.00  -0.01     0.00   0.00  -0.20
    57   1     0.00   0.00  -0.31     0.00   0.00  -0.03     0.00   0.00  -0.19
    58   1     0.00   0.00  -0.16    -0.00   0.00  -0.26    -0.00  -0.00   0.10
    59   1    -0.00   0.00   0.12     0.00  -0.00   0.28     0.00  -0.00   0.08
    60   1     0.00  -0.00  -0.14     0.00  -0.00   0.27     0.00  -0.00   0.09
                     13                     14                     15
                      A                      A                      A
 Frequencies --    181.7856               223.2351               223.3511
 Red. masses --     10.2367                 5.9729                 5.9784
 Frc consts  --      0.1993                 0.1754                 0.1757
 IR Inten    --      0.0000                 0.0000                 0.0000
  Atom  AN      X      Y      Z        X      Y      Z        X      Y      Z
     1   6    -0.00   0.00   0.10    -0.00   0.00   0.09     0.00  -0.00  -0.10
     2   6    -0.00  -0.00   0.06     0.00   0.00  -0.01    -0.00   0.00   0.04
     3   6     0.00  -0.00  -0.10     0.00  -0.00  -0.03    -0.00   0.00   0.17
     4   6    -0.00  -0.00   0.05    -0.00   0.00   0.13     0.00   0.00   0.11
     5   6     0.00  -0.00  -0.01     0.00  -0.00  -0.04     0.00  -0.00  -0.13
     6   6     0.00  -0.00   0.15     0.00   0.00   0.03     0.00   0.00   0.02
     7   6     0.00  -0.00   0.10    -0.00  -0.00  -0.04     0.00   0.00   0.13
     8   6    -0.00  -0.00   0.20     0.00   0.00   0.03     0.00  -0.00  -0.03
     9   6    -0.00  -0.00  -0.05     0.00   0.00   0.13     0.00  -0.00  -0.11
    10   6    -0.00   0.00   0.10    -0.00   0.00   0.16    -0.00   0.00   0.06
    11   6     0.00  -0.00  -0.10     0.00  -0.00  -0.13    -0.00   0.00   0.03
    12   6    -0.00  -0.00  -0.04    -0.00   0.00   0.04    -0.00  -0.00   0.02
    13   7     0.00  -0.00  -0.15     0.00  -0.00  -0.18     0.00  -0.00  -0.10
    14   7    -0.00  -0.00   0.27    -0.00   0.00   0.06    -0.00   0.00   0.03
    15   7     0.00  -0.00  -0.01     0.00   0.00   0.06    -0.00  -0.00  -0.03
    16   7    -0.00  -0.00  -0.26     0.00   0.00   0.00    -0.00   0.00   0.07
    17   7     0.00  -0.00   0.01    -0.00  -0.00  -0.18     0.00   0.00   0.10
    18   7    -0.00   0.00   0.15     0.00   0.00  -0.00     0.00  -0.00  -0.20
    19   6     0.00   0.00  -0.21     0.00   0.00   0.04    -0.00   0.00  -0.01
    20   6     0.00   0.00   0.04     0.00  -0.00   0.16    -0.00  -0.00  -0.06
    21   6     0.00   0.00  -0.09    -0.00  -0.00  -0.13    -0.00  -0.00  -0.03
    22   6     0.00  -0.00  -0.16    -0.00   0.00  -0.01    -0.00  -0.00  -0.04
    23   6     0.00   0.00  -0.05    -0.00  -0.00  -0.03    -0.00  -0.00  -0.17
    24   6     0.00  -0.00  -0.00     0.00  -0.00   0.09     0.00  -0.00   0.10
    25   7     0.00  -0.00   0.15     0.00   0.00   0.00     0.00  -0.00   0.20
    26   7     0.00   0.00  -0.26    -0.00   0.00  -0.00    -0.00   0.00  -0.07
    27   6    -0.00   0.00  -0.21     0.00   0.00  -0.04    -0.00  -0.00   0.01
    28   6    -0.00  -0.00   0.04     0.00   0.00  -0.16    -0.00  -0.00   0.06
    29   6    -0.00   0.00  -0.09    -0.00  -0.00   0.13    -0.00  -0.00   0.03
    30   6    -0.00   0.00  -0.16    -0.00   0.00   0.01    -0.00  -0.00   0.04
    31   6    -0.00  -0.00  -0.05    -0.00  -0.00   0.03    -0.00  -0.00   0.17
    32   6    -0.00   0.00  -0.00     0.00   0.00  -0.09     0.00  -0.00  -0.10
    33   7    -0.00  -0.00   0.01    -0.00  -0.00   0.18     0.00   0.00  -0.10
    34   7    -0.00   0.00  -0.01     0.00   0.00  -0.06    -0.00  -0.00   0.03
    35   6     0.00   0.00   0.05     0.00   0.00  -0.13     0.00   0.00  -0.11
    36   6    -0.00   0.00  -0.01     0.00  -0.00   0.04     0.00  -0.00   0.13
    37   6    -0.00   0.00   0.15     0.00   0.00  -0.03    -0.00   0.00  -0.02
    38   6     0.00  -0.00   0.10    -0.00   0.00  -0.09     0.00  -0.00   0.10
    39   6     0.00   0.00   0.06     0.00  -0.00   0.01    -0.00   0.00  -0.04
    40   6    -0.00   0.00  -0.10     0.00  -0.00   0.03    -0.00   0.00  -0.17
    41   6     0.00  -0.00   0.10    -0.00   0.00  -0.16    -0.00   0.00  -0.06
    42   6    -0.00   0.00  -0.10     0.00  -0.00   0.13    -0.00   0.00  -0.03
    43   6     0.00   0.00  -0.04    -0.00   0.00  -0.04    -0.00   0.00  -0.02
    44   6    -0.00   0.00   0.10    -0.00  -0.00   0.04     0.00   0.00  -0.13
    45   6     0.00   0.00   0.20     0.00   0.00  -0.03    -0.00  -0.00   0.03
    46   6     0.00   0.00  -0.05     0.00   0.00  -0.13     0.00  -0.00   0.11
    47   7     0.00  -0.00   0.27    -0.00   0.00  -0.06    -0.00   0.00  -0.03
    48   7    -0.00   0.00  -0.15     0.00  -0.00   0.18     0.00  -0.00   0.10
    49   1     0.00   0.00  -0.01    -0.00  -0.00  -0.05    -0.00  -0.00  -0.31
    50   1     0.00   0.00   0.15     0.00  -0.00   0.29    -0.00  -0.00  -0.12
    51   1    -0.00  -0.00   0.03     0.00   0.00   0.24     0.00   0.00   0.19
    52   1    -0.00  -0.00  -0.16    -0.00   0.00   0.24     0.00  -0.00  -0.19
    53   1     0.00  -0.00  -0.18     0.00  -0.00  -0.05    -0.00   0.00   0.30
    54   1    -0.00   0.00   0.17    -0.00   0.00   0.29    -0.00   0.00   0.11
    55   1    -0.00  -0.00   0.15     0.00   0.00  -0.29    -0.00  -0.00   0.12
    56   1    -0.00  -0.00  -0.01    -0.00  -0.00   0.05    -0.00  -0.00   0.31
    57   1     0.00   0.00   0.03     0.00   0.00  -0.24     0.00   0.00  -0.19
    58   1     0.00   0.00  -0.16     0.00   0.00  -0.24     0.00  -0.00   0.19
    59   1    -0.00   0.00  -0.18     0.00  -0.00   0.05    -0.00   0.00  -0.30
    60   1     0.00  -0.00   0.17    -0.00   0.00  -0.29    -0.00   0.00  -0.11
                     16                     17                     18
                      A                      A                      A
 Frequencies --    255.2533               277.1800               277.4970
 Red. masses --      9.9150                12.4716                 5.1478
 Frc consts  --      0.3806                 0.5645                 0.2336
 IR Inten    --      0.0000                 0.0000                12.5408
  Atom  AN      X      Y      Z        X      Y      Z        X      Y      Z
     1   6    -0.12   0.06  -0.00     0.00  -0.00   0.01    -0.00  -0.00   0.07
     2   6    -0.07   0.10  -0.00    -0.00   0.00   0.10    -0.00   0.00  -0.01
     3   6    -0.08   0.09   0.00    -0.00  -0.00  -0.04    -0.00  -0.00  -0.10
     4   6     0.04   0.12   0.00    -0.00   0.00   0.04     0.00   0.00  -0.10
     5   6    -0.01   0.13  -0.00    -0.00   0.00  -0.01    -0.00   0.00   0.07
     6   6     0.05   0.11   0.00    -0.00  -0.00  -0.10     0.00   0.00  -0.01
     7   6     0.07   0.11  -0.00    -0.00  -0.00   0.02     0.00   0.00   0.07
     8   6     0.00   0.12  -0.00    -0.00   0.00   0.11     0.00   0.00  -0.01
     9   6     0.02   0.12   0.00    -0.00   0.00  -0.05     0.00   0.00  -0.10
    10   6    -0.09   0.08   0.00    -0.00  -0.00   0.05    -0.00  -0.00  -0.10
    11   6    -0.06   0.11  -0.00    -0.00   0.00  -0.02    -0.00   0.00   0.07
    12   6    -0.10   0.06  -0.00     0.00  -0.00  -0.11    -0.00  -0.00  -0.01
    13   7    -0.03   0.11  -0.00    -0.00   0.00  -0.02    -0.00   0.00   0.16
    14   7    -0.04   0.14   0.00    -0.00   0.00   0.35     0.00   0.00  -0.06
    15   7     0.10   0.11   0.00    -0.00  -0.00  -0.35     0.00   0.00  -0.06
    16   7    -0.14   0.04   0.00     0.00  -0.00  -0.35    -0.00  -0.00  -0.06
    17   7     0.08   0.08  -0.00    -0.00  -0.00   0.02     0.00   0.00   0.16
    18   7    -0.11   0.03  -0.00     0.00  -0.00   0.02    -0.00  -0.00   0.16
    19   6     0.12   0.01  -0.00     0.00  -0.00   0.10     0.00  -0.00  -0.01
    20   6     0.12   0.03   0.00     0.00   0.00  -0.04     0.00  -0.00  -0.10
    21   6     0.11   0.07  -0.00    -0.00  -0.00   0.01     0.00   0.00   0.07
    22   6     0.11   0.06   0.00    -0.00  -0.00  -0.11     0.00   0.00  -0.01
    23   6     0.12   0.04   0.00    -0.00   0.00   0.05     0.00  -0.00  -0.10
    24   6     0.13  -0.01  -0.00     0.00  -0.00  -0.02     0.00  -0.00   0.07
    25   7     0.11  -0.03  -0.00     0.00  -0.00  -0.02     0.00  -0.00   0.16
    26   7     0.14  -0.04   0.00     0.00  -0.00   0.35     0.00  -0.00  -0.06
    27   6    -0.12  -0.01   0.00     0.00  -0.00  -0.10    -0.00  -0.00  -0.01
    28   6    -0.12  -0.03   0.00     0.00   0.00   0.04    -0.00  -0.00  -0.10
    29   6    -0.11  -0.07  -0.00    -0.00  -0.00  -0.01    -0.00  -0.00   0.07
    30   6    -0.11  -0.06  -0.00    -0.00  -0.00   0.11    -0.00  -0.00  -0.01
    31   6    -0.12  -0.04   0.00    -0.00   0.00  -0.05    -0.00  -0.00  -0.10
    32   6    -0.13   0.01  -0.00     0.00  -0.00   0.02    -0.00  -0.00   0.07
    33   7    -0.08  -0.08  -0.00    -0.00  -0.00  -0.02    -0.00  -0.00   0.16
    34   7    -0.10  -0.11   0.00    -0.00  -0.00   0.35    -0.00   0.00  -0.06
    35   6    -0.04  -0.12   0.00    -0.00   0.00  -0.04    -0.00   0.00  -0.10
    36   6     0.01  -0.13  -0.00    -0.00   0.00   0.01    -0.00  -0.00   0.07
    37   6    -0.05  -0.11   0.00    -0.00  -0.00   0.10    -0.00   0.00  -0.01
    38   6     0.12  -0.06  -0.00     0.00  -0.00  -0.01     0.00  -0.00   0.07
    39   6     0.07  -0.10  -0.00    -0.00   0.00  -0.10     0.00  -0.00  -0.01
    40   6     0.08  -0.09   0.00    -0.00  -0.00   0.04    -0.00  -0.00  -0.10
    41   6     0.09  -0.08   0.00     0.00  -0.00  -0.05     0.00  -0.00  -0.10
    42   6     0.06  -0.11  -0.00    -0.00   0.00   0.02     0.00  -0.00   0.07
    43   6     0.10  -0.06  -0.00     0.00  -0.00   0.11     0.00  -0.00  -0.01
    44   6    -0.07  -0.11  -0.00    -0.00  -0.00  -0.02    -0.00  -0.00   0.07
    45   6    -0.00  -0.12   0.00    -0.00   0.00  -0.11     0.00   0.00  -0.01
    46   6    -0.02  -0.12   0.00    -0.00   0.00   0.05    -0.00   0.00  -0.10
    47   7     0.04  -0.14   0.00    -0.00   0.00  -0.35     0.00  -0.00  -0.06
    48   7     0.03  -0.11  -0.00    -0.00   0.00   0.02     0.00  -0.00   0.16
    49   1     0.14   0.02   0.00    -0.00   0.00   0.09    -0.00  -0.00  -0.23
    50   1     0.13   0.05   0.00     0.00   0.00  -0.08    -0.00  -0.00  -0.23
    51   1     0.02   0.14   0.00    -0.00   0.00   0.08    -0.00   0.00  -0.23
    52   1     0.05   0.13   0.00    -0.00   0.00  -0.09     0.00   0.00  -0.23
    53   1    -0.11   0.08   0.00    -0.00  -0.00  -0.08    -0.00  -0.00  -0.23
    54   1    -0.09   0.11   0.00    -0.00  -0.00   0.09     0.00  -0.00  -0.23
    55   1    -0.13  -0.05   0.00     0.00   0.00   0.08     0.00  -0.00  -0.23
    56   1    -0.14  -0.02   0.00    -0.00   0.00  -0.09     0.00  -0.00  -0.23
    57   1    -0.02  -0.14   0.00    -0.00   0.00  -0.08     0.00   0.00  -0.23
    58   1    -0.05  -0.13   0.00    -0.00   0.00   0.09    -0.00   0.00  -0.23
    59   1     0.11  -0.08   0.00    -0.00  -0.00   0.08    -0.00  -0.00  -0.23
    60   1     0.09  -0.11   0.00    -0.00  -0.00  -0.09    -0.00  -0.00  -0.23
                     19                     20                     21
                      A                      A                      A
 Frequencies --    280.3343               280.6513               283.5953
 Red. masses --      7.4933                 7.4943                 6.0814
 Frc consts  --      0.3470                 0.3478                 0.2882
 IR Inten    --      3.0773                 3.0915                 0.0000
  Atom  AN      X      Y      Z        X      Y      Z        X      Y      Z
     1   6    -0.02   0.11   0.00     0.11   0.03  -0.00    -0.00   0.00   0.09
     2   6     0.01   0.01   0.00     0.06  -0.09  -0.00    -0.00   0.00   0.17
     3   6     0.13   0.11  -0.00     0.08  -0.02   0.00    -0.00   0.00  -0.05
     4   6     0.10  -0.10  -0.00    -0.13   0.01  -0.00    -0.00  -0.00   0.05
     5   6     0.11  -0.03   0.00    -0.04  -0.10   0.00    -0.00  -0.00  -0.08
     6   6    -0.03  -0.08  -0.00    -0.04  -0.04   0.00    -0.00  -0.00  -0.17
     7   6    -0.02  -0.10   0.00    -0.11   0.02   0.00    -0.00  -0.00  -0.08
     8   6     0.01  -0.05   0.00    -0.01  -0.09   0.00    -0.00  -0.00  -0.17
     9   6     0.12  -0.05  -0.00    -0.13  -0.04  -0.00    -0.00  -0.00   0.05
    10   6     0.08   0.16  -0.00     0.08   0.00   0.00    -0.00   0.00  -0.05
    11   6     0.11   0.04   0.00     0.03  -0.10  -0.00    -0.00   0.00   0.08
    12   6    -0.04   0.04  -0.00     0.08  -0.04  -0.00    -0.00   0.00   0.17
    13   7     0.14   0.01   0.00    -0.01  -0.10   0.00    -0.00  -0.00   0.00
    14   7    -0.01  -0.04   0.00     0.04  -0.12  -0.00    -0.00  -0.00   0.00
    15   7    -0.09  -0.09  -0.00    -0.01  -0.03   0.00     0.00  -0.00  -0.00
    16   7    -0.09   0.01  -0.00     0.09  -0.03   0.00     0.00   0.00  -0.00
    17   7    -0.04  -0.09   0.00    -0.11   0.08   0.00    -0.00   0.00   0.00
    18   7    -0.04   0.11   0.00     0.09   0.08  -0.00     0.00   0.00   0.00
    19   6    -0.09   0.01   0.00     0.05   0.02  -0.00     0.00   0.00   0.17
    20   6    -0.06   0.04  -0.00     0.00   0.18   0.00     0.00   0.00  -0.05
    21   6    -0.08  -0.07   0.00    -0.08   0.09  -0.00     0.00   0.00   0.08
    22   6    -0.09  -0.05  -0.00    -0.01   0.01  -0.00     0.00   0.00   0.17
    23   6    -0.08   0.02  -0.00    -0.07   0.16   0.00     0.00   0.00  -0.05
    24   6    -0.08   0.08   0.00     0.07   0.09  -0.00     0.00   0.00   0.08
    25   7    -0.04   0.11   0.00     0.09   0.08   0.00     0.00   0.00  -0.00
    26   7    -0.09   0.01   0.00     0.09  -0.03  -0.00     0.00   0.00   0.00
    27   6    -0.09   0.01  -0.00     0.05   0.02   0.00     0.00   0.00  -0.17
    28   6    -0.06   0.04  -0.00     0.00   0.18  -0.00     0.00   0.00   0.05
    29   6    -0.08  -0.07   0.00    -0.08   0.09   0.00     0.00   0.00  -0.08
    30   6    -0.09  -0.05   0.00    -0.01   0.01   0.00     0.00   0.00  -0.17
    31   6    -0.08   0.02  -0.00    -0.07   0.16  -0.00     0.00   0.00   0.05
    32   6    -0.08   0.08   0.00     0.07   0.09   0.00     0.00   0.00  -0.08
    33   7    -0.04  -0.09   0.00    -0.11   0.08   0.00    -0.00   0.00  -0.00
    34   7    -0.09  -0.09   0.00    -0.01  -0.03  -0.00     0.00  -0.00   0.00
    35   6     0.10  -0.10  -0.00    -0.13   0.01   0.00    -0.00  -0.00  -0.05
    36   6     0.11  -0.03   0.00    -0.04  -0.10  -0.00    -0.00  -0.00   0.08
    37   6    -0.03  -0.08   0.00    -0.04  -0.04  -0.00    -0.00  -0.00   0.17
    38   6    -0.02   0.11   0.00     0.11   0.03   0.00    -0.00   0.00  -0.09
    39   6     0.01   0.01  -0.00     0.06  -0.09   0.00    -0.00   0.00  -0.17
    40   6     0.13   0.11   0.00     0.08  -0.02  -0.00    -0.00   0.00   0.05
    41   6     0.08   0.16  -0.00     0.08   0.00  -0.00    -0.00   0.00   0.05
    42   6     0.11   0.04   0.00     0.03  -0.10   0.00    -0.00   0.00  -0.08
    43   6    -0.04   0.04   0.00     0.08  -0.04   0.00    -0.00   0.00  -0.17
    44   6    -0.02  -0.10   0.00    -0.11   0.02  -0.00    -0.00  -0.00   0.08
    45   6     0.01  -0.05  -0.00    -0.01  -0.09  -0.00    -0.00  -0.00   0.17
    46   6     0.12  -0.05  -0.00    -0.13  -0.04   0.00    -0.00  -0.00  -0.05
    47   7    -0.01  -0.04  -0.00     0.04  -0.12   0.00    -0.00  -0.00  -0.00
    48   7     0.14   0.01   0.00    -0.01  -0.10   0.00    -0.00  -0.00  -0.00
    49   1    -0.13   0.06  -0.00    -0.11   0.20   0.00     0.00   0.00  -0.21
    50   1    -0.07   0.01  -0.00     0.02   0.26   0.00     0.00   0.00  -0.21
    51   1     0.16  -0.16  -0.00    -0.14   0.02  -0.00    -0.00  -0.00   0.21
    52   1     0.14  -0.05  -0.00    -0.22  -0.06  -0.00    -0.00  -0.00   0.21
    53   1     0.19   0.13  -0.00     0.14  -0.01   0.00    -0.00   0.00  -0.22
    54   1     0.10   0.24  -0.00     0.07  -0.03   0.00    -0.00   0.00  -0.21
    55   1    -0.07   0.01  -0.00     0.02   0.26  -0.00     0.00   0.00   0.21
    56   1    -0.13   0.06  -0.00    -0.11   0.20  -0.00     0.00   0.00   0.21
    57   1     0.16  -0.16  -0.00    -0.14   0.02   0.00    -0.00  -0.00  -0.21
    58   1     0.14  -0.05  -0.00    -0.22  -0.06   0.00    -0.00  -0.00  -0.21
    59   1     0.19   0.13   0.00     0.14  -0.01  -0.00    -0.00   0.00   0.22
    60   1     0.10   0.24  -0.00     0.07  -0.03  -0.00    -0.00   0.00   0.21
                     22                     23                     24
                      A                      A                      A
 Frequencies --    292.0040               316.6407               316.9249
 Red. masses --      9.5028                 5.1383                 8.5641
 Frc consts  --      0.4774                 0.3035                 0.5068
 IR Inten    --      0.0002                 0.0000                 0.0000
  Atom  AN      X      Y      Z        X      Y      Z        X      Y      Z
     1   6    -0.08   0.09  -0.00    -0.00   0.00   0.11     0.12  -0.04   0.00
     2   6    -0.11   0.08  -0.00     0.00  -0.00  -0.03    -0.02   0.11  -0.00
     3   6    -0.10   0.10   0.00     0.00  -0.00  -0.13    -0.06   0.04  -0.00
     4   6    -0.04  -0.14  -0.00    -0.00   0.00  -0.13    -0.00  -0.07  -0.00
     5   6    -0.04  -0.11   0.00     0.00  -0.00   0.11    -0.02   0.13   0.00
     6   6    -0.01  -0.13   0.00     0.00   0.00  -0.03    -0.08  -0.07  -0.00
     7   6    -0.02  -0.12   0.00     0.00   0.00  -0.11    -0.08  -0.10  -0.00
     8   6    -0.05  -0.13   0.00     0.00  -0.00   0.03    -0.04   0.10   0.00
     9   6    -0.03  -0.14  -0.00    -0.00  -0.00   0.13     0.03   0.07   0.00
    10   6    -0.11   0.10   0.00    -0.00   0.00   0.13     0.04  -0.06   0.00
    11   6    -0.09   0.07  -0.00     0.00  -0.00  -0.11    -0.05   0.12  -0.00
    12   6    -0.08   0.11  -0.00    -0.00   0.00   0.03     0.11  -0.02   0.00
    13   7    -0.01  -0.00   0.00     0.00  -0.00   0.00    -0.04   0.13  -0.00
    14   7    -0.13  -0.04  -0.00     0.00  -0.00  -0.00    -0.04   0.14  -0.00
    15   7     0.10  -0.09  -0.00     0.00   0.00  -0.00    -0.10  -0.11   0.00
    16   7     0.03   0.13  -0.00    -0.00   0.00   0.00     0.14  -0.04   0.00
    17   7     0.01  -0.01   0.00     0.00   0.00   0.00    -0.09  -0.10   0.00
    18   7     0.00   0.01   0.00    -0.00   0.00  -0.00     0.13  -0.03   0.00
    19   6     0.12   0.06  -0.00    -0.00   0.00  -0.03     0.10  -0.03  -0.00
    20   6     0.14   0.04   0.00    -0.00  -0.00  -0.13     0.07   0.03  -0.00
    21   6     0.12   0.02  -0.00     0.00   0.00   0.11    -0.10  -0.08   0.00
    22   6     0.13   0.02  -0.00     0.00   0.00   0.03    -0.07  -0.08   0.00
    23   6     0.14   0.04   0.00     0.00   0.00   0.13    -0.07  -0.01   0.00
    24   6     0.11   0.04  -0.00    -0.00   0.00  -0.11     0.13  -0.02  -0.00
    25   7     0.00   0.01   0.00    -0.00   0.00  -0.00     0.13  -0.03  -0.00
    26   7     0.03   0.13  -0.00    -0.00   0.00   0.00     0.14  -0.04  -0.00
    27   6     0.12   0.06   0.00    -0.00   0.00  -0.03     0.10  -0.03  -0.00
    28   6     0.14   0.04  -0.00    -0.00  -0.00  -0.13     0.07   0.03  -0.00
    29   6     0.12   0.02   0.00     0.00   0.00   0.11    -0.10  -0.08   0.00
    30   6     0.13   0.02   0.00     0.00   0.00   0.03    -0.07  -0.08   0.00
    31   6     0.14   0.04  -0.00     0.00  -0.00   0.13    -0.07  -0.01   0.00
    32   6     0.11   0.04   0.00    -0.00   0.00  -0.11     0.13  -0.02  -0.00
    33   7     0.01  -0.01   0.00     0.00   0.00   0.00    -0.09  -0.10  -0.00
    34   7     0.10  -0.09  -0.00     0.00   0.00  -0.00    -0.10  -0.11  -0.00
    35   6    -0.04  -0.14   0.00     0.00   0.00  -0.13    -0.00  -0.07  -0.00
    36   6    -0.04  -0.11  -0.00     0.00  -0.00   0.11    -0.02   0.13   0.00
    37   6    -0.01  -0.13  -0.00     0.00   0.00  -0.03    -0.08  -0.07  -0.00
    38   6    -0.08   0.09   0.00    -0.00   0.00   0.11     0.12  -0.04   0.00
    39   6    -0.11   0.08   0.00     0.00  -0.00  -0.03    -0.02   0.11  -0.00
    40   6    -0.10   0.10  -0.00     0.00  -0.00  -0.13    -0.06   0.04  -0.00
    41   6    -0.11   0.10  -0.00    -0.00   0.00   0.13     0.04  -0.06   0.00
    42   6    -0.09   0.07   0.00     0.00  -0.00  -0.11    -0.05   0.12  -0.00
    43   6    -0.08   0.11   0.00    -0.00   0.00   0.03     0.11  -0.02   0.00
    44   6    -0.02  -0.12  -0.00     0.00   0.00  -0.11    -0.08  -0.10  -0.00
    45   6    -0.05  -0.13  -0.00     0.00  -0.00   0.03    -0.04   0.10   0.00
    46   6    -0.03  -0.14   0.00    -0.00  -0.00   0.13     0.03   0.07   0.00
    47   7    -0.13  -0.04  -0.00     0.00  -0.00  -0.00    -0.04   0.14   0.00
    48   7    -0.01  -0.00   0.00     0.00  -0.00   0.00    -0.04   0.13   0.00
    49   1     0.14   0.05   0.00     0.00  -0.00   0.23    -0.16   0.07   0.00
    50   1     0.14   0.03   0.00    -0.00  -0.00  -0.23     0.10   0.14  -0.00
    51   1    -0.05  -0.14  -0.00    -0.00   0.00  -0.23     0.08  -0.15  -0.00
    52   1    -0.03  -0.14  -0.00    -0.00  -0.00   0.23     0.14   0.10   0.00
    53   1    -0.10   0.11   0.00     0.00  -0.00  -0.23    -0.17   0.01  -0.00
    54   1    -0.11   0.09   0.00    -0.00   0.00   0.23     0.02  -0.17   0.00
    55   1     0.14   0.03  -0.00    -0.00  -0.00  -0.23     0.10   0.14  -0.00
    56   1     0.14   0.05  -0.00     0.00  -0.00   0.23    -0.16   0.07   0.00
    57   1    -0.05  -0.14   0.00    -0.00   0.00  -0.23     0.08  -0.15  -0.00
    58   1    -0.03  -0.14   0.00    -0.00  -0.00   0.23     0.14   0.10   0.00
    59   1    -0.10   0.11  -0.00     0.00   0.00  -0.23    -0.17   0.01  -0.00
    60   1    -0.11   0.09  -0.00    -0.00   0.00   0.23     0.02  -0.17   0.00
                     25                     26                     27
                      A                      A                      A
 Frequencies --    366.3938               366.9491               368.6959
 Red. masses --      4.6579                 4.6491                 6.3914
 Frc consts  --      0.3684                 0.3688                 0.5119
 IR Inten    --      0.0000                 0.0000                 0.0000
  Atom  AN      X      Y      Z        X      Y      Z        X      Y      Z
     1   6    -0.00   0.00   0.08    -0.00  -0.00   0.11     0.00   0.00   0.14
     2   6     0.00  -0.00  -0.05    -0.00   0.00   0.02    -0.00  -0.00   0.13
     3   6     0.00  -0.00  -0.13     0.00  -0.00  -0.07    -0.00   0.00  -0.05
     4   6    -0.00  -0.00  -0.12     0.00   0.00   0.08    -0.00   0.00   0.04
     5   6    -0.00   0.00   0.14     0.00   0.00  -0.02    -0.00  -0.00  -0.07
     6   6    -0.00   0.00  -0.00     0.00   0.00   0.05     0.00   0.00   0.01
     7   6    -0.00   0.00   0.04     0.00   0.00   0.14     0.00   0.00  -0.04
     8   6    -0.00   0.00   0.05     0.00   0.00  -0.02    -0.00  -0.00  -0.12
     9   6    -0.00   0.00   0.02     0.00  -0.00  -0.15    -0.00  -0.00   0.00
    10   6    -0.00   0.00   0.14     0.00  -0.00  -0.05    -0.00   0.00  -0.05
    11   6     0.00  -0.00  -0.10    -0.00   0.00   0.10    -0.00  -0.00   0.14
    12   6    -0.00   0.00   0.04    -0.00   0.00   0.03     0.00   0.00   0.15
    13   7    -0.00  -0.00   0.04     0.00   0.00   0.09    -0.00  -0.00  -0.01
    14   7     0.00  -0.00  -0.04     0.00  -0.00  -0.08     0.00  -0.00  -0.14
    15   7    -0.00  -0.00  -0.09    -0.00  -0.00  -0.01     0.00   0.00   0.23
    16   7    -0.00   0.00   0.05     0.00  -0.00  -0.08     0.00   0.00  -0.09
    17   7     0.00   0.00   0.10    -0.00  -0.00   0.01     0.00   0.00   0.01
    18   7     0.00   0.00  -0.05    -0.00  -0.00   0.08     0.00   0.00  -0.01
    19   6     0.00  -0.00   0.04     0.00  -0.00   0.03    -0.00  -0.00  -0.14
    20   6     0.00  -0.00   0.01     0.00   0.00   0.15    -0.00  -0.00   0.01
    21   6     0.00   0.00   0.06    -0.00  -0.00  -0.13     0.00   0.00  -0.07
    22   6     0.00   0.00   0.00    -0.00  -0.00  -0.05     0.00   0.00  -0.03
    23   6    -0.00  -0.00  -0.11    -0.00   0.00  -0.09     0.00  -0.00   0.05
    24   6     0.00  -0.00   0.14     0.00   0.00   0.03    -0.00  -0.00  -0.10
    25   7     0.00  -0.00   0.05    -0.00   0.00  -0.08    -0.00  -0.00  -0.01
    26   7    -0.00   0.00  -0.05     0.00  -0.00   0.08    -0.00  -0.00  -0.09
    27   6     0.00   0.00  -0.04     0.00  -0.00  -0.03     0.00   0.00  -0.14
    28   6     0.00  -0.00  -0.01     0.00  -0.00  -0.15     0.00   0.00   0.01
    29   6     0.00   0.00  -0.06    -0.00  -0.00   0.13    -0.00  -0.00  -0.07
    30   6     0.00  -0.00  -0.00    -0.00  -0.00   0.05    -0.00  -0.00  -0.03
    31   6    -0.00  -0.00   0.11    -0.00  -0.00   0.09    -0.00   0.00   0.05
    32   6     0.00   0.00  -0.14    -0.00  -0.00  -0.03     0.00   0.00  -0.10
    33   7     0.00   0.00  -0.10     0.00   0.00  -0.01    -0.00  -0.00   0.01
    34   7    -0.00  -0.00   0.09     0.00   0.00   0.01    -0.00  -0.00   0.23
    35   6    -0.00  -0.00   0.12    -0.00   0.00  -0.08     0.00  -0.00   0.04
    36   6    -0.00   0.00  -0.14    -0.00  -0.00   0.02     0.00   0.00  -0.07
    37   6    -0.00  -0.00   0.00     0.00   0.00  -0.05    -0.00  -0.00   0.01
    38   6    -0.00   0.00  -0.08    -0.00   0.00  -0.11    -0.00  -0.00   0.14
    39   6    -0.00  -0.00   0.05    -0.00   0.00  -0.02     0.00   0.00   0.13
    40   6    -0.00  -0.00   0.13     0.00  -0.00   0.07     0.00  -0.00  -0.05
    41   6    -0.00   0.00  -0.14    -0.00   0.00   0.05     0.00  -0.00  -0.05
    42   6    -0.00  -0.00   0.10    -0.00   0.00  -0.10     0.00   0.00   0.14
    43   6    -0.00   0.00  -0.04    -0.00   0.00  -0.03    -0.00  -0.00   0.15
    44   6     0.00   0.00  -0.04     0.00   0.00  -0.14    -0.00  -0.00  -0.04
    45   6    -0.00   0.00  -0.05     0.00  -0.00   0.02     0.00   0.00  -0.12
    46   6     0.00   0.00  -0.02    -0.00  -0.00   0.15     0.00   0.00   0.00
    47   7    -0.00  -0.00   0.04     0.00  -0.00   0.08    -0.00   0.00  -0.14
    48   7    -0.00   0.00  -0.04    -0.00   0.00  -0.09     0.00   0.00  -0.01
    49   1    -0.00  -0.00  -0.32    -0.00   0.00  -0.09     0.00  -0.00   0.20
    50   1    -0.00   0.00  -0.12     0.00   0.00   0.32    -0.00  -0.00   0.16
    51   1    -0.00  -0.00  -0.33     0.00  -0.00   0.06    -0.00   0.00   0.14
    52   1    -0.00  -0.00  -0.08     0.00  -0.00  -0.33    -0.00  -0.00   0.09
    53   1     0.00  -0.00  -0.22     0.00  -0.00  -0.26     0.00   0.00  -0.30
    54   1    -0.00   0.00   0.24     0.00  -0.00  -0.23    -0.00  -0.00  -0.29
    55   1    -0.00  -0.00   0.12     0.00   0.00  -0.32     0.00   0.00   0.16
    56   1    -0.00  -0.00   0.32    -0.00  -0.00   0.09    -0.00   0.00   0.20
    57   1    -0.00  -0.00   0.33    -0.00   0.00  -0.06     0.00  -0.00   0.14
    58   1     0.00  -0.00   0.08    -0.00  -0.00   0.33     0.00   0.00   0.09
    59   1    -0.00  -0.00   0.22     0.00  -0.00   0.26    -0.00  -0.00  -0.30
    60   1    -0.00   0.00  -0.24     0.00  -0.00   0.23     0.00   0.00  -0.29
                     28                     29                     30
                      A                      A                      A
 Frequencies --    368.8719               375.3002               375.5178
 Red. masses --      6.4102                 6.2344                 6.2289
 Frc consts  --      0.5139                 0.5174                 0.5175
 IR Inten    --      0.0000                 0.0000                 0.0000
  Atom  AN      X      Y      Z        X      Y      Z        X      Y      Z
     1   6    -0.00   0.00   0.00    -0.05  -0.05   0.00    -0.02   0.12  -0.00
     2   6     0.00  -0.00  -0.09     0.02   0.02   0.00     0.04  -0.04   0.00
     3   6     0.00   0.00  -0.01     0.10  -0.02  -0.00     0.14   0.09   0.00
     4   6    -0.00   0.00  -0.04     0.11  -0.02   0.00    -0.10   0.12   0.00
     5   6     0.00  -0.00   0.12     0.12   0.05  -0.00     0.01  -0.06  -0.00
     6   6    -0.00   0.00   0.16    -0.03  -0.04  -0.00    -0.01   0.03  -0.00
     7   6    -0.00   0.00   0.14    -0.04  -0.04  -0.00    -0.08   0.11  -0.00
     8   6     0.00  -0.00   0.10     0.02   0.02  -0.00     0.00  -0.05  -0.00
     9   6    -0.00   0.00  -0.06     0.14   0.06   0.00    -0.11   0.03   0.00
    10   6     0.00   0.00   0.02     0.06  -0.01  -0.00     0.06   0.17  -0.00
    11   6     0.00  -0.00  -0.04     0.11   0.04   0.00     0.08  -0.04   0.00
    12   6    -0.00   0.00   0.05    -0.04   0.00   0.00    -0.03   0.04  -0.00
    13   7     0.00  -0.00  -0.01     0.12   0.05  -0.00     0.05  -0.05   0.00
    14   7     0.00  -0.00  -0.19     0.01   0.03  -0.00     0.03  -0.08   0.00
    15   7    -0.00  -0.00  -0.03    -0.06  -0.06   0.00     0.00   0.03  -0.00
    16   7    -0.00   0.00   0.22    -0.07   0.00  -0.00    -0.06   0.03  -0.00
    17   7    -0.00   0.00  -0.00    -0.06  -0.02   0.00    -0.08   0.10  -0.00
    18   7    -0.00   0.00   0.01    -0.06  -0.08  -0.00    -0.02   0.10  -0.00
    19   6     0.00  -0.00  -0.07     0.05   0.02  -0.00     0.03  -0.01   0.00
    20   6    -0.00   0.00   0.05     0.02   0.18  -0.00    -0.06   0.02  -0.00
    21   6    -0.00   0.00  -0.12    -0.09   0.01   0.00    -0.07   0.09   0.00
    22   6    -0.00   0.00  -0.16    -0.05  -0.02   0.00    -0.01   0.02   0.00
    23   6    -0.00   0.00   0.03    -0.08   0.15   0.00    -0.09   0.03  -0.00
    24   6     0.00  -0.00  -0.10     0.07   0.10  -0.00     0.02  -0.07   0.00
    25   7     0.00  -0.00   0.01     0.06   0.08   0.00     0.02  -0.10  -0.00
    26   7     0.00  -0.00   0.22     0.07  -0.00  -0.00     0.06  -0.03  -0.00
    27   6    -0.00   0.00  -0.07    -0.05  -0.02  -0.00    -0.03   0.01   0.00
    28   6     0.00  -0.00   0.05    -0.02  -0.18  -0.00     0.06  -0.02  -0.00
    29   6     0.00  -0.00  -0.12     0.09  -0.01  -0.00     0.07  -0.09   0.00
    30   6     0.00   0.00  -0.16     0.05   0.02   0.00     0.01  -0.02   0.00
    31   6     0.00  -0.00   0.03     0.08  -0.15   0.00     0.09  -0.03  -0.00
    32   6    -0.00   0.00  -0.10    -0.07  -0.10  -0.00    -0.02   0.07   0.00
    33   7     0.00  -0.00  -0.00     0.06   0.02   0.00     0.08  -0.10   0.00
    34   7     0.00   0.00  -0.03     0.06   0.06   0.00    -0.00  -0.03  -0.00
    35   6     0.00  -0.00  -0.04    -0.11   0.02   0.00     0.10  -0.12  -0.00
    36   6    -0.00  -0.00   0.12    -0.12  -0.05  -0.00    -0.01   0.06  -0.00
    37   6     0.00  -0.00   0.16     0.03   0.04  -0.00     0.01  -0.03  -0.00
    38   6     0.00  -0.00   0.00     0.05   0.05   0.00     0.02  -0.12  -0.00
    39   6    -0.00   0.00  -0.09    -0.02  -0.02   0.00    -0.04   0.04   0.00
    40   6    -0.00  -0.00  -0.01    -0.10   0.02  -0.00    -0.14  -0.09   0.00
    41   6    -0.00  -0.00   0.02    -0.06   0.01  -0.00    -0.06  -0.17  -0.00
    42   6    -0.00   0.00  -0.04    -0.11  -0.04   0.00    -0.08   0.04  -0.00
    43   6     0.00  -0.00   0.05     0.04  -0.00   0.00     0.03  -0.04  -0.00
    44   6     0.00  -0.00   0.14     0.04   0.04  -0.00     0.08  -0.11  -0.00
    45   6    -0.00   0.00   0.10    -0.02  -0.02  -0.00    -0.00   0.05  -0.00
    46   6     0.00  -0.00  -0.06    -0.14  -0.06   0.00     0.11  -0.03   0.00
    47   7    -0.00   0.00  -0.19    -0.01  -0.03  -0.00    -0.03   0.08   0.00
    48   7    -0.00   0.00  -0.01    -0.12  -0.05   0.00    -0.05   0.05   0.00
    49   1    -0.00   0.00   0.22    -0.18   0.23   0.00    -0.06   0.00  -0.00
    50   1     0.00   0.00   0.26     0.05   0.27  -0.00    -0.03   0.11  -0.00
    51   1    -0.00   0.00  -0.26     0.20  -0.12   0.00    -0.12   0.14   0.00
    52   1    -0.00   0.00  -0.29     0.17   0.06   0.00    -0.24  -0.01   0.00
    53   1     0.00   0.00   0.01     0.06  -0.03  -0.00     0.27   0.12   0.00
    54   1     0.00   0.00   0.06     0.08   0.09  -0.00     0.08   0.26  -0.00
    55   1    -0.00  -0.00   0.26    -0.05  -0.27   0.00     0.03  -0.11  -0.00
    56   1     0.00  -0.00   0.22     0.18  -0.23   0.00     0.06  -0.00  -0.00
    57   1     0.00  -0.00  -0.26    -0.20   0.12   0.00     0.12  -0.14   0.00
    58   1     0.00   0.00  -0.29    -0.17  -0.06   0.00     0.24   0.01   0.00
    59   1    -0.00  -0.00   0.01    -0.06   0.03  -0.00    -0.27  -0.12   0.00
    60   1    -0.00  -0.00   0.06    -0.08  -0.09  -0.00    -0.08  -0.26   0.00
                     31                     32                     33
                      A                      A                      A
 Frequencies --    448.0122               448.1623               457.4931
 Red. masses --      9.0839                 9.0779                 6.0136
 Frc consts  --      1.0742                 1.0743                 0.7416
 IR Inten    --      0.0000                 0.0000                 0.0016
  Atom  AN      X      Y      Z        X      Y      Z        X      Y      Z
     1   6    -0.00   0.00   0.12    -0.00  -0.00  -0.02    -0.00  -0.00  -0.07
     2   6    -0.00   0.00   0.16    -0.00   0.00   0.03     0.00  -0.00   0.04
     3   6    -0.00   0.00  -0.01    -0.00   0.00   0.09    -0.00  -0.00   0.17
     4   6     0.00  -0.00  -0.08     0.00   0.00   0.04     0.00   0.00  -0.05
     5   6    -0.00   0.00   0.08     0.00   0.00   0.09     0.00  -0.00  -0.01
     6   6     0.00   0.00   0.06     0.00   0.00   0.15     0.00   0.00   0.04
     7   6     0.00   0.00  -0.01     0.00   0.00   0.12     0.00   0.00  -0.07
     8   6     0.00   0.00   0.05     0.00   0.00   0.16     0.00   0.00   0.08
     9   6    -0.00   0.00   0.09     0.00   0.00  -0.02     0.00   0.00   0.10
    10   6    -0.00   0.00   0.03    -0.00  -0.00  -0.09    -0.00  -0.00  -0.17
    11   6    -0.00   0.00   0.10    -0.00   0.00   0.07    -0.00  -0.00   0.07
    12   6    -0.00   0.00   0.16    -0.00   0.00   0.04    -0.00   0.00  -0.05
    13   7     0.00  -0.00  -0.19     0.00  -0.00  -0.17     0.00  -0.00  -0.19
    14   7     0.00  -0.00  -0.18     0.00  -0.00  -0.16     0.00  -0.00  -0.04
    15   7    -0.00   0.00   0.05    -0.00  -0.00  -0.24    -0.00   0.00  -0.00
    16   7     0.00  -0.00  -0.23    -0.00   0.00   0.08    -0.00   0.00   0.04
    17   7     0.00   0.00   0.05    -0.00  -0.00  -0.24     0.00  -0.00  -0.01
    18   7     0.00  -0.00  -0.24    -0.00  -0.00   0.08    -0.00  -0.00   0.20
    19   6    -0.00  -0.00  -0.10     0.00  -0.00   0.13    -0.00  -0.00  -0.08
    20   6    -0.00  -0.00  -0.08    -0.00   0.00  -0.05    -0.00  -0.00  -0.11
    21   6    -0.00  -0.00  -0.04     0.00   0.00   0.11    -0.00  -0.00   0.07
    22   6    -0.00  -0.00  -0.11     0.00   0.00   0.12    -0.00  -0.00  -0.03
    23   6     0.00  -0.00   0.06     0.00   0.00   0.07    -0.00  -0.00   0.07
    24   6    -0.00  -0.00  -0.11     0.00  -0.00   0.06    -0.00  -0.00  -0.00
    25   7     0.00  -0.00   0.24    -0.00   0.00  -0.08     0.00  -0.00   0.20
    26   7     0.00  -0.00   0.23    -0.00   0.00  -0.08     0.00  -0.00   0.04
    27   6    -0.00  -0.00   0.10     0.00   0.00  -0.13     0.00   0.00  -0.08
    28   6    -0.00  -0.00   0.08     0.00  -0.00   0.05     0.00   0.00  -0.11
    29   6    -0.00  -0.00   0.04     0.00   0.00  -0.11     0.00   0.00   0.07
    30   6    -0.00  -0.00   0.11     0.00   0.00  -0.12     0.00   0.00  -0.03
    31   6     0.00   0.00  -0.06     0.00   0.00  -0.07     0.00   0.00   0.07
    32   6    -0.00  -0.00   0.11     0.00  -0.00  -0.06     0.00   0.00  -0.00
    33   7     0.00   0.00  -0.05    -0.00  -0.00   0.24    -0.00   0.00  -0.01
    34   7     0.00   0.00  -0.05    -0.00  -0.00   0.24     0.00  -0.00  -0.00
    35   6     0.00  -0.00   0.08     0.00   0.00  -0.04    -0.00  -0.00  -0.05
    36   6     0.00   0.00  -0.08     0.00   0.00  -0.09    -0.00   0.00  -0.01
    37   6     0.00   0.00  -0.06     0.00   0.00  -0.15    -0.00  -0.00   0.04
    38   6    -0.00   0.00  -0.12    -0.00  -0.00   0.02     0.00   0.00  -0.07
    39   6    -0.00   0.00  -0.16     0.00  -0.00  -0.03    -0.00   0.00   0.04
    40   6    -0.00   0.00   0.01    -0.00   0.00  -0.09     0.00   0.00   0.17
    41   6    -0.00   0.00  -0.03     0.00  -0.00   0.09     0.00   0.00  -0.17
    42   6    -0.00   0.00  -0.10    -0.00  -0.00  -0.07     0.00   0.00   0.07
    43   6    -0.00   0.00  -0.16    -0.00   0.00  -0.04     0.00  -0.00  -0.05
    44   6     0.00   0.00   0.01     0.00   0.00  -0.12    -0.00  -0.00  -0.07
    45   6     0.00   0.00  -0.05     0.00   0.00  -0.16    -0.00  -0.00   0.08
    46   6     0.00   0.00  -0.09    -0.00   0.00   0.02    -0.00  -0.00   0.10
    47   7     0.00  -0.00   0.18     0.00  -0.00   0.16    -0.00   0.00  -0.04
    48   7     0.00  -0.00   0.19     0.00  -0.00   0.17    -0.00   0.00  -0.19
    49   1     0.00   0.00   0.23     0.00   0.00  -0.03    -0.00  -0.00   0.06
    50   1     0.00   0.00  -0.01    -0.00   0.00  -0.23    -0.00  -0.00  -0.25
    51   1    -0.00  -0.00  -0.21     0.00   0.00  -0.11     0.00   0.00  -0.03
    52   1     0.00   0.00   0.09    -0.00  -0.00  -0.22     0.00   0.00   0.23
    53   1     0.00  -0.00  -0.20    -0.00   0.00   0.12    -0.00  -0.00   0.28
    54   1     0.00  -0.00  -0.14     0.00  -0.00  -0.19    -0.00  -0.00  -0.29
    55   1    -0.00   0.00   0.01    -0.00  -0.00   0.23     0.00   0.00  -0.25
    56   1     0.00   0.00  -0.23    -0.00  -0.00   0.03     0.00   0.00   0.06
    57   1    -0.00  -0.00   0.21    -0.00  -0.00   0.11    -0.00  -0.00  -0.03
    58   1     0.00   0.00  -0.09    -0.00  -0.00   0.22    -0.00  -0.00   0.23
    59   1     0.00  -0.00   0.20     0.00   0.00  -0.12     0.00  -0.00   0.28
    60   1    -0.00  -0.00   0.14     0.00  -0.00   0.19     0.00   0.00  -0.29
                     34                     35                     36
                      A                      A                      A
 Frequencies --    457.8683               461.6425               467.3492
 Red. masses --      6.0232                 9.0805                 9.5120
 Frc consts  --      0.7440                 1.1402                 1.2241
 IR Inten    --      0.0225                37.7222                 0.0000
  Atom  AN      X      Y      Z        X      Y      Z        X      Y      Z
     1   6    -0.00   0.00  -0.04    -0.00   0.00   0.11     0.04  -0.02   0.00
     2   6    -0.00   0.00   0.07    -0.00  -0.00   0.11     0.08  -0.09   0.00
     3   6    -0.00   0.00   0.03    -0.00  -0.00   0.00     0.06  -0.12   0.00
     4   6     0.00  -0.00  -0.16     0.00   0.00   0.01    -0.08   0.03  -0.00
     5   6     0.00  -0.00   0.09     0.00  -0.00   0.10    -0.08   0.16   0.00
     6   6     0.00   0.00  -0.07     0.00   0.00   0.11    -0.04   0.01  -0.00
     7   6     0.00   0.00  -0.04     0.00   0.00   0.11    -0.05  -0.02  -0.00
     8   6     0.00  -0.00   0.01     0.00   0.00   0.11     0.00   0.15  -0.00
     9   6     0.00  -0.00   0.14     0.00   0.00   0.00    -0.06   0.17   0.00
    10   6    -0.00   0.00   0.02    -0.00  -0.00   0.00     0.04  -0.07   0.00
    11   6     0.00   0.00  -0.04    -0.00   0.00   0.11     0.02  -0.13   0.00
    12   6    -0.00   0.00   0.07    -0.00   0.00   0.11     0.04  -0.06   0.00
    13   7     0.00  -0.00  -0.13     0.00  -0.00  -0.17    -0.11   0.00  -0.00
    14   7    -0.00  -0.00  -0.03     0.00  -0.00  -0.18     0.12   0.06  -0.00
    15   7     0.00   0.00   0.05    -0.00   0.00  -0.19    -0.08  -0.04   0.00
    16   7     0.00   0.00  -0.03     0.00   0.00  -0.18    -0.08  -0.08  -0.00
    17   7     0.00   0.00   0.23     0.00  -0.00  -0.18    -0.07  -0.11   0.00
    18   7     0.00  -0.00  -0.11    -0.00  -0.00  -0.17    -0.07   0.10  -0.00
    19   6    -0.00  -0.00   0.00     0.00  -0.00   0.11     0.13  -0.01  -0.00
    20   6    -0.00   0.00   0.13    -0.00  -0.00  -0.00     0.15  -0.09   0.00
    21   6    -0.00   0.00  -0.04    -0.00  -0.00   0.11    -0.06  -0.12   0.00
    22   6    -0.00   0.00  -0.07    -0.00  -0.00   0.11    -0.06  -0.07  -0.00
    23   6    -0.00   0.00  -0.16    -0.00  -0.00   0.01    -0.03  -0.13  -0.00
    24   6    -0.00   0.00   0.09     0.00   0.00   0.10     0.16  -0.08   0.00
    25   7    -0.00   0.00  -0.11     0.00   0.00  -0.17     0.07  -0.10  -0.00
    26   7    -0.00  -0.00  -0.03    -0.00  -0.00  -0.18     0.08   0.08  -0.00
    27   6     0.00   0.00   0.00    -0.00   0.00   0.11    -0.13   0.01  -0.00
    28   6     0.00  -0.00   0.13     0.00   0.00  -0.00    -0.15   0.09   0.00
    29   6     0.00  -0.00  -0.04    -0.00   0.00   0.11     0.06   0.12   0.00
    30   6     0.00  -0.00  -0.07     0.00   0.00   0.11     0.06   0.07  -0.00
    31   6     0.00  -0.00  -0.16     0.00   0.00   0.01     0.03   0.13  -0.00
    32   6     0.00  -0.00   0.09    -0.00  -0.00   0.10    -0.16   0.08   0.00
    33   7    -0.00  -0.00   0.23    -0.00   0.00  -0.18     0.07   0.11   0.00
    34   7    -0.00  -0.00   0.05     0.00   0.00  -0.19     0.08   0.04   0.00
    35   6    -0.00   0.00  -0.16    -0.00  -0.00   0.01     0.08  -0.03  -0.00
    36   6    -0.00   0.00   0.09    -0.00  -0.00   0.10     0.08  -0.16  -0.00
    37   6    -0.00  -0.00  -0.07    -0.00  -0.00   0.11     0.04  -0.01  -0.00
    38   6     0.00   0.00  -0.04     0.00  -0.00   0.11    -0.04   0.02   0.00
    39   6     0.00  -0.00   0.07     0.00  -0.00   0.11    -0.08   0.09   0.00
    40   6     0.00  -0.00   0.03     0.00   0.00   0.00    -0.06   0.12   0.00
    41   6     0.00  -0.00   0.02     0.00  -0.00   0.00    -0.04   0.07   0.00
    42   6     0.00  -0.00  -0.04     0.00   0.00   0.11    -0.02   0.13   0.00
    43   6     0.00  -0.00   0.07     0.00  -0.00   0.11    -0.04   0.06   0.00
    44   6    -0.00  -0.00  -0.04    -0.00  -0.00   0.11     0.05   0.02  -0.00
    45   6    -0.00   0.00   0.01    -0.00  -0.00   0.11    -0.00  -0.15  -0.00
    46   6    -0.00   0.00   0.14    -0.00  -0.00   0.00     0.06  -0.17   0.00
    47   7     0.00   0.00  -0.03    -0.00   0.00  -0.18    -0.12  -0.06  -0.00
    48   7    -0.00   0.00  -0.13    -0.00   0.00  -0.17     0.11  -0.00  -0.00
    49   1    -0.00  -0.00  -0.31    -0.00  -0.00  -0.16    -0.10  -0.07  -0.00
    50   1    -0.00  -0.00   0.18    -0.00   0.00  -0.17     0.19   0.02   0.00
    51   1     0.00  -0.00  -0.31     0.00   0.00  -0.16    -0.04  -0.01  -0.00
    52   1    -0.00  -0.00   0.20     0.00  -0.00  -0.17     0.04   0.20   0.00
    53   1    -0.00   0.00   0.12    -0.00  -0.00  -0.17     0.12  -0.11   0.00
    54   1    -0.00   0.00   0.09    -0.00   0.00  -0.17     0.05  -0.08  -0.00
    55   1     0.00  -0.00   0.18     0.00   0.00  -0.17    -0.19  -0.02   0.00
    56   1     0.00   0.00  -0.31     0.00   0.00  -0.16     0.10   0.07  -0.00
    57   1    -0.00   0.00  -0.31    -0.00  -0.00  -0.16     0.04   0.01  -0.00
    58   1    -0.00   0.00   0.20    -0.00   0.00  -0.17    -0.04  -0.20   0.00
    59   1     0.00  -0.00   0.12    -0.00   0.00  -0.17    -0.12   0.11   0.00
    60   1     0.00  -0.00   0.09     0.00  -0.00  -0.17    -0.05   0.08   0.00
                     37                     38                     39
                      A                      A                      A
 Frequencies --    467.4185               490.2581               508.9894
 Red. masses --      9.5095                 6.9851                11.0537
 Frc consts  --      1.2241                 0.9892                 1.6872
 IR Inten    --      0.0000                 0.0000                 0.0000
  Atom  AN      X      Y      Z        X      Y      Z        X      Y      Z
     1   6    -0.18   0.01  -0.00    -0.00   0.00   0.05    -0.10  -0.12  -0.00
     2   6     0.02  -0.09  -0.00     0.00  -0.00  -0.07    -0.06   0.08  -0.00
     3   6    -0.04  -0.13  -0.00     0.00  -0.00  -0.12     0.09  -0.06   0.00
     4   6     0.13   0.12   0.00     0.00   0.00   0.12     0.01   0.11  -0.00
     5   6     0.04  -0.04  -0.00     0.00  -0.00  -0.05     0.15  -0.03   0.00
     6   6     0.07   0.13  -0.00     0.00   0.00   0.07    -0.04  -0.09  -0.00
     7   6     0.15   0.11  -0.00     0.00   0.00   0.05    -0.15   0.05  -0.00
     8   6     0.03  -0.01  -0.00     0.00  -0.00  -0.07    -0.01  -0.10  -0.00
     9   6     0.08  -0.01  -0.00     0.00  -0.00  -0.12     0.04   0.10  -0.00
    10   6    -0.18  -0.01   0.00    -0.00   0.00   0.12     0.06  -0.09   0.00
    11   6     0.00  -0.14  -0.00     0.00  -0.00  -0.05     0.12   0.10  -0.00
    12   6    -0.12   0.05  -0.00    -0.00   0.00   0.07    -0.08   0.05  -0.00
    13   7     0.01  -0.13   0.00    -0.00   0.00   0.19     0.20   0.06   0.00
    14   7     0.06  -0.07   0.00    -0.00   0.00   0.01    -0.09  -0.03   0.00
    15   7    -0.08   0.10   0.00    -0.00  -0.00  -0.01     0.07  -0.07   0.00
    16   7    -0.04   0.10   0.00     0.00  -0.00  -0.01     0.02   0.09   0.00
    17   7     0.10  -0.05  -0.00    -0.00  -0.00  -0.19    -0.15   0.14   0.00
    18   7    -0.11  -0.06  -0.00     0.00  -0.00  -0.19    -0.05  -0.20  -0.00
    19   6    -0.06  -0.03   0.00    -0.00   0.00  -0.07     0.10   0.01  -0.00
    20   6    -0.07  -0.04   0.00    -0.00  -0.00  -0.12    -0.10  -0.04   0.00
    21   6    -0.08  -0.10  -0.00     0.00   0.00   0.06    -0.05   0.15  -0.00
    22   6    -0.12  -0.05   0.00     0.00   0.00   0.07     0.09   0.04  -0.00
    23   6    -0.11  -0.08   0.00     0.00   0.00   0.12    -0.11  -0.01   0.00
    24   6    -0.05   0.01  -0.00    -0.00   0.00  -0.05     0.03  -0.15  -0.00
    25   7     0.11   0.06  -0.00     0.00  -0.00   0.19    -0.05  -0.20   0.00
    26   7     0.04  -0.10   0.00     0.00  -0.00   0.01     0.02   0.09   0.00
    27   6     0.06   0.03   0.00    -0.00   0.00   0.07     0.10   0.01   0.00
    28   6     0.07   0.04   0.00    -0.00  -0.00   0.12    -0.10  -0.04  -0.00
    29   6     0.08   0.10  -0.00     0.00   0.00  -0.06    -0.05   0.15   0.00
    30   6     0.12   0.05   0.00     0.00   0.00  -0.07     0.09   0.04   0.00
    31   6     0.11   0.08   0.00     0.00   0.00  -0.12    -0.11  -0.01  -0.00
    32   6     0.05  -0.01  -0.00    -0.00  -0.00   0.05     0.03  -0.15  -0.00
    33   7    -0.10   0.05  -0.00    -0.00  -0.00   0.19    -0.15   0.14   0.00
    34   7     0.08  -0.10   0.00    -0.00  -0.00   0.01     0.07  -0.07  -0.00
    35   6    -0.13  -0.12   0.00     0.00   0.00  -0.12     0.01   0.11   0.00
    36   6    -0.04   0.04  -0.00     0.00  -0.00   0.05     0.15  -0.03  -0.00
    37   6    -0.07  -0.13  -0.00     0.00   0.00  -0.07    -0.04  -0.09  -0.00
    38   6     0.18  -0.01  -0.00    -0.00   0.00  -0.05    -0.10  -0.12  -0.00
    39   6    -0.02   0.09  -0.00     0.00  -0.00   0.07    -0.06   0.08  -0.00
    40   6     0.04   0.13  -0.00     0.00  -0.00   0.12     0.09  -0.06  -0.00
    41   6     0.18   0.01   0.00    -0.00   0.00  -0.12     0.06  -0.09  -0.00
    42   6    -0.00   0.14  -0.00     0.00  -0.00   0.05     0.12   0.10   0.00
    43   6     0.12  -0.05  -0.00    -0.00   0.00  -0.07    -0.08   0.05  -0.00
    44   6    -0.15  -0.11  -0.00     0.00   0.00  -0.05    -0.15   0.05  -0.00
    45   6    -0.03   0.01  -0.00     0.00  -0.00   0.07    -0.01  -0.10  -0.00
    46   6    -0.08   0.01  -0.00    -0.00  -0.00   0.12     0.04   0.10   0.00
    47   7    -0.06   0.07   0.00    -0.00   0.00  -0.01    -0.09  -0.03   0.00
    48   7    -0.01   0.13   0.00    -0.00   0.00  -0.19     0.20   0.06   0.00
    49   1    -0.16  -0.04   0.00     0.00   0.00   0.20     0.00  -0.11   0.00
    50   1    -0.08  -0.05   0.00    -0.00  -0.00  -0.21    -0.06   0.09   0.00
    51   1     0.06   0.19   0.00     0.00   0.00   0.20     0.11   0.00  -0.00
    52   1     0.03  -0.03  -0.00    -0.00  -0.00  -0.20    -0.09   0.05  -0.00
    53   1     0.06  -0.11  -0.00     0.00  -0.00  -0.20    -0.05  -0.10   0.00
    54   1    -0.15   0.11   0.00    -0.00   0.00   0.20     0.09   0.05   0.00
    55   1     0.08   0.05   0.00    -0.00  -0.00   0.21    -0.06   0.09  -0.00
    56   1     0.16   0.04   0.00     0.00   0.00  -0.20     0.00  -0.11  -0.00
    57   1    -0.06  -0.19   0.00     0.00   0.00  -0.20     0.11   0.00   0.00
    58   1    -0.03   0.03  -0.00    -0.00  -0.00   0.20    -0.09   0.05   0.00
    59   1    -0.06   0.11  -0.00     0.00  -0.00   0.20    -0.05  -0.10  -0.00
    60   1     0.15  -0.11   0.00    -0.00   0.00  -0.20     0.09   0.05  -0.00
                     40                     41                     42
                      A                      A                      A
 Frequencies --    513.0602               538.9354               540.5916
 Red. masses --      5.3307                10.0881                 6.8742
 Frc consts  --      0.8267                 1.7264                 1.1836
 IR Inten    --      0.0000                 0.0000                34.7824
  Atom  AN      X      Y      Z        X      Y      Z        X      Y      Z
     1   6    -0.03  -0.05  -0.00     0.02  -0.00  -0.00    -0.16   0.05  -0.00
     2   6    -0.02  -0.01  -0.00    -0.16  -0.07  -0.00     0.04  -0.09   0.00
     3   6    -0.12  -0.11   0.00     0.06   0.12  -0.00     0.07  -0.12   0.00
     4   6     0.16  -0.05  -0.00     0.14   0.01   0.00    -0.00   0.03  -0.00
     5   6     0.06  -0.00   0.00     0.01  -0.02   0.00     0.01   0.12  -0.00
     6   6     0.02  -0.01  -0.00    -0.14   0.10  -0.00    -0.03  -0.02  -0.00
     7   6     0.05  -0.03  -0.00     0.02   0.02  -0.00    -0.06  -0.02   0.00
     8   6     0.02  -0.00   0.00    -0.17  -0.02   0.00     0.01   0.08  -0.00
     9   6     0.16  -0.03   0.00     0.12  -0.07  -0.00     0.02   0.17  -0.00
    10   6    -0.11  -0.12  -0.00     0.12   0.06   0.00    -0.11   0.07  -0.00
    11   6    -0.05  -0.03  -0.00    -0.01   0.02   0.00     0.06  -0.16   0.00
    12   6    -0.01  -0.02  -0.00    -0.07  -0.16   0.00    -0.09   0.04  -0.00
    13   7     0.01  -0.05   0.00     0.02   0.00  -0.00    -0.03  -0.06   0.00
    14   7    -0.00   0.02   0.00    -0.18  -0.05  -0.00     0.08   0.00   0.00
    15   7    -0.01  -0.01  -0.00    -0.13   0.13   0.00    -0.03  -0.03   0.00
    16   7     0.02  -0.00  -0.00    -0.04  -0.18   0.00    -0.00   0.08  -0.00
    17   7     0.04   0.04  -0.00     0.01  -0.01   0.00    -0.08  -0.08   0.00
    18   7    -0.05   0.01  -0.00     0.00   0.02   0.00    -0.07  -0.03  -0.00
    19   6    -0.00   0.02   0.00     0.02   0.17   0.00     0.07   0.01  -0.00
    20   6    -0.04   0.16   0.00     0.07  -0.11  -0.00     0.17   0.03  -0.00
    21   6    -0.03   0.05  -0.00    -0.01  -0.02  -0.00    -0.01  -0.06   0.00
    22   6    -0.01   0.02   0.00    -0.10   0.14  -0.00    -0.01  -0.03   0.00
    23   6    -0.05   0.15  -0.00    -0.00  -0.14   0.00     0.04   0.00  -0.00
    24   6    -0.00   0.06   0.00     0.02  -0.01   0.00     0.11   0.01  -0.00
    25   7    -0.05   0.01   0.00    -0.00  -0.02  -0.00    -0.07  -0.03   0.00
    26   7     0.02  -0.00   0.00     0.04   0.18  -0.00    -0.00   0.08   0.00
    27   6    -0.00   0.02  -0.00    -0.02  -0.17  -0.00     0.07   0.01   0.00
    28   6    -0.04   0.16  -0.00    -0.07   0.11  -0.00     0.17   0.03   0.00
    29   6    -0.03   0.05   0.00     0.01   0.02   0.00    -0.01  -0.06   0.00
    30   6    -0.01   0.02  -0.00     0.10  -0.14   0.00    -0.01  -0.03  -0.00
    31   6    -0.05   0.15   0.00     0.00   0.14   0.00     0.04   0.00   0.00
    32   6    -0.00   0.06  -0.00    -0.02   0.01  -0.00     0.11   0.01   0.00
    33   7     0.04   0.04   0.00    -0.01   0.01   0.00    -0.08  -0.08  -0.00
    34   7    -0.01  -0.01   0.00     0.13  -0.13  -0.00    -0.03  -0.03  -0.00
    35   6     0.16  -0.05   0.00    -0.14  -0.01  -0.00    -0.00   0.03   0.00
    36   6     0.06  -0.00  -0.00    -0.01   0.02   0.00     0.01   0.12   0.00
    37   6     0.02  -0.01   0.00     0.14  -0.10  -0.00    -0.03  -0.02  -0.00
    38   6    -0.03  -0.05   0.00    -0.02   0.00   0.00    -0.16   0.05   0.00
    39   6    -0.02  -0.01  -0.00     0.16   0.07  -0.00     0.04  -0.09  -0.00
    40   6    -0.12  -0.11  -0.00    -0.06  -0.12   0.00     0.07  -0.12  -0.00
    41   6    -0.11  -0.12  -0.00    -0.12  -0.06  -0.00    -0.11   0.07   0.00
    42   6    -0.05  -0.03  -0.00     0.01  -0.02  -0.00     0.06  -0.16  -0.00
    43   6    -0.01  -0.02   0.00     0.07   0.16   0.00    -0.09   0.04  -0.00
    44   6     0.05  -0.03   0.00    -0.02  -0.02  -0.00    -0.06  -0.02  -0.00
    45   6     0.02  -0.00  -0.00     0.17   0.02   0.00     0.01   0.08   0.00
    46   6     0.16  -0.03  -0.00    -0.12   0.07   0.00     0.02   0.17   0.00
    47   7    -0.00   0.02  -0.00     0.18   0.05   0.00     0.08   0.00  -0.00
    48   7     0.01  -0.05  -0.00    -0.02  -0.00   0.00    -0.03  -0.06  -0.00
    49   1    -0.10   0.20  -0.00    -0.01  -0.13   0.00    -0.04   0.08  -0.00
    50   1    -0.02   0.22   0.00     0.07  -0.11  -0.00     0.18   0.09  -0.00
    51   1     0.20  -0.10  -0.00     0.13   0.01   0.00     0.08  -0.05   0.00
    52   1     0.23  -0.01   0.00     0.11  -0.07  -0.00     0.09   0.19  -0.00
    53   1    -0.19  -0.13   0.00     0.06   0.12  -0.00     0.25  -0.07   0.00
    54   1    -0.12  -0.19  -0.00     0.12   0.06   0.00    -0.07   0.25  -0.00
    55   1    -0.02   0.22  -0.00    -0.07   0.11   0.00     0.18   0.09  -0.00
    56   1    -0.10   0.20   0.00     0.01   0.13   0.00    -0.04   0.08  -0.00
    57   1     0.20  -0.10   0.00    -0.13  -0.01  -0.00     0.08  -0.05  -0.00
    58   1     0.23  -0.01  -0.00    -0.11   0.07   0.00     0.09   0.19   0.00
    59   1    -0.19  -0.13  -0.00    -0.06  -0.12   0.00     0.25  -0.07  -0.00
    60   1    -0.12  -0.19  -0.00    -0.12  -0.06  -0.00    -0.07   0.25   0.00
                     43                     44                     45
                      A                      A                      A
 Frequencies --    540.7473               552.9990               567.0515
 Red. masses --      6.8789                 5.5227                 6.3661
 Frc consts  --      1.1851                 0.9951                 1.2061
 IR Inten    --     34.7446                 0.0000                 0.0001
  Atom  AN      X      Y      Z        X      Y      Z        X      Y      Z
     1   6    -0.02   0.05  -0.00     0.00   0.00   0.09     0.00  -0.00  -0.14
     2   6    -0.03   0.01  -0.00     0.00  -0.00  -0.10    -0.00   0.00   0.18
     3   6    -0.08   0.08  -0.00    -0.00   0.00   0.10    -0.00   0.00  -0.12
     4   6     0.07   0.16  -0.00    -0.00  -0.00  -0.10     0.00   0.00   0.02
     5   6     0.05  -0.12  -0.00     0.00  -0.00  -0.09     0.00  -0.00   0.05
     6   6     0.05   0.09   0.00     0.00   0.00   0.10     0.00   0.00  -0.06
     7   6     0.09   0.13  -0.00     0.00   0.00   0.09     0.00   0.00   0.01
     8   6     0.02  -0.07  -0.00    -0.00  -0.00  -0.10     0.00  -0.00  -0.01
     9   6     0.01  -0.05   0.00    -0.00  -0.00   0.10    -0.00  -0.00  -0.02
    10   6    -0.09   0.08  -0.00     0.00  -0.00  -0.10    -0.00   0.00   0.12
    11   6    -0.04   0.01  -0.00     0.00   0.00  -0.09    -0.00   0.00   0.12
    12   6    -0.02   0.03  -0.00    -0.00  -0.00   0.10     0.00  -0.00  -0.16
    13   7     0.05  -0.09   0.00    -0.00   0.00   0.03     0.00  -0.00  -0.05
    14   7    -0.03  -0.05   0.00    -0.00   0.00   0.08    -0.00  -0.00  -0.05
    15   7    -0.07   0.06  -0.00    -0.00  -0.00  -0.08     0.00   0.00  -0.03
    16   7     0.05   0.04   0.00     0.00  -0.00  -0.08    -0.00  -0.00   0.08
    17   7     0.04  -0.04  -0.00    -0.00  -0.00  -0.03    -0.00  -0.00  -0.03
    18   7     0.09  -0.05   0.00     0.00   0.00  -0.03    -0.00   0.00   0.09
    19   6     0.08  -0.02  -0.00    -0.00   0.00  -0.10    -0.00  -0.00  -0.12
    20   6     0.06  -0.01  -0.00     0.00  -0.00   0.10     0.00   0.00   0.10
    21   6    -0.13  -0.10   0.00     0.00   0.00   0.09     0.00  -0.00   0.10
    22   6    -0.09  -0.06   0.00     0.00   0.00   0.10     0.00  -0.00   0.16
    23   6    -0.16  -0.08   0.00    -0.00  -0.00  -0.10    -0.00   0.00  -0.10
    24   6     0.13  -0.04  -0.00    -0.00   0.00  -0.09    -0.00   0.00  -0.13
    25   7     0.09  -0.05  -0.00     0.00  -0.00   0.03     0.00  -0.00   0.09
    26   7     0.05   0.04  -0.00     0.00  -0.00   0.08     0.00  -0.00   0.08
    27   6     0.08  -0.02   0.00    -0.00  -0.00   0.10     0.00  -0.00  -0.12
    28   6     0.06  -0.01   0.00    -0.00   0.00  -0.10    -0.00  -0.00   0.10
    29   6    -0.13  -0.10  -0.00     0.00   0.00  -0.09     0.00   0.00   0.10
    30   6    -0.09  -0.06  -0.00     0.00   0.00  -0.10    -0.00  -0.00   0.16
    31   6    -0.16  -0.08  -0.00    -0.00   0.00   0.10     0.00   0.00  -0.10
    32   6     0.13  -0.04   0.00    -0.00  -0.00   0.09     0.00   0.00  -0.13
    33   7     0.04  -0.04  -0.00    -0.00  -0.00   0.03    -0.00   0.00  -0.03
    34   7    -0.07   0.06   0.00     0.00  -0.00   0.08     0.00  -0.00  -0.03
    35   6     0.07   0.16   0.00    -0.00  -0.00   0.10    -0.00  -0.00   0.02
    36   6     0.05  -0.12  -0.00    -0.00  -0.00   0.09     0.00   0.00   0.05
    37   6     0.05   0.09   0.00     0.00   0.00  -0.10    -0.00  -0.00  -0.06
    38   6    -0.02   0.05   0.00    -0.00   0.00  -0.09    -0.00   0.00  -0.14
    39   6    -0.03   0.01   0.00     0.00  -0.00   0.10     0.00  -0.00   0.18
    40   6    -0.08   0.08   0.00     0.00   0.00  -0.10    -0.00   0.00  -0.12
    41   6    -0.09   0.08   0.00     0.00  -0.00   0.10     0.00   0.00   0.12
    42   6    -0.04   0.01   0.00     0.00  -0.00   0.09     0.00  -0.00   0.12
    43   6    -0.02   0.03   0.00    -0.00   0.00  -0.10    -0.00  -0.00  -0.16
    44   6     0.09   0.13   0.00     0.00   0.00  -0.09    -0.00  -0.00   0.01
    45   6     0.02  -0.07  -0.00     0.00  -0.00   0.10    -0.00   0.00  -0.01
    46   6     0.01  -0.05  -0.00    -0.00   0.00  -0.10     0.00   0.00  -0.02
    47   7    -0.03  -0.05  -0.00     0.00   0.00  -0.08    -0.00   0.00  -0.05
    48   7     0.05  -0.09  -0.00    -0.00   0.00  -0.03     0.00   0.00  -0.05
    49   1    -0.27   0.02   0.00    -0.00  -0.00  -0.22    -0.00   0.00  -0.22
    50   1     0.11   0.16   0.00     0.00  -0.00   0.22     0.00   0.00   0.24
    51   1    -0.03   0.26  -0.00    -0.00  -0.00  -0.22    -0.00   0.00   0.02
    52   1    -0.15  -0.10   0.00    -0.00   0.00   0.22    -0.00  -0.00  -0.06
    53   1    -0.05   0.09   0.00    -0.00   0.00   0.22    -0.00   0.00  -0.27
    54   1    -0.10   0.06  -0.00     0.00  -0.00  -0.22    -0.00  -0.00   0.28
    55   1     0.11   0.16   0.00     0.00  -0.00  -0.22    -0.00  -0.00   0.24
    56   1    -0.27   0.02  -0.00    -0.00  -0.00   0.22     0.00   0.00  -0.22
    57   1    -0.03   0.26   0.00    -0.00  -0.00   0.22     0.00  -0.00   0.02
    58   1    -0.15  -0.10  -0.00     0.00   0.00  -0.22     0.00   0.00  -0.06
    59   1    -0.05   0.09  -0.00    -0.00   0.00  -0.22     0.00   0.00  -0.27
    60   1    -0.10   0.06   0.00     0.00  -0.00   0.22     0.00  -0.00   0.28
                     46                     47                     48
                      A                      A                      A
 Frequencies --    567.1523               573.6113               573.7558
 Red. masses --      6.3763                10.2611                10.2613
 Frc consts  --      1.2084                 1.9892                 1.9902
 IR Inten    --      0.0001                 0.8789                 0.8646
  Atom  AN      X      Y      Z        X      Y      Z        X      Y      Z
     1   6    -0.00  -0.00  -0.03    -0.00   0.07  -0.00    -0.03  -0.06  -0.00
     2   6    -0.00  -0.00   0.04     0.18   0.05   0.00     0.06   0.03   0.00
     3   6     0.00  -0.00  -0.05    -0.06  -0.05  -0.00     0.10  -0.16   0.00
     4   6     0.00   0.00   0.13    -0.11  -0.13   0.00     0.02  -0.11   0.00
     5   6    -0.00   0.00   0.14    -0.03   0.01   0.00    -0.08  -0.03  -0.00
     6   6    -0.00  -0.00  -0.18     0.12  -0.10  -0.00    -0.09   0.10   0.00
     7   6    -0.00  -0.00  -0.15     0.05  -0.07  -0.00     0.05  -0.03   0.00
     8   6    -0.00   0.00   0.18     0.17   0.05   0.00    -0.10  -0.02  -0.00
     9   6     0.00  -0.00  -0.13    -0.08  -0.03  -0.00     0.01  -0.19   0.00
    10   6     0.00  -0.00   0.05    -0.15   0.03   0.00     0.07  -0.11   0.00
    11   6     0.00   0.00   0.08    -0.00  -0.02   0.00     0.09   0.02   0.00
    12   6     0.00  -0.00  -0.10     0.05   0.17  -0.00     0.02   0.10  -0.00
    13   7     0.00   0.00  -0.07    -0.04   0.00  -0.00    -0.03   0.13  -0.00
    14   7    -0.00  -0.00  -0.07     0.21   0.04  -0.00     0.01  -0.13   0.00
    15   7     0.00   0.00   0.08    -0.02  -0.14   0.00    -0.18   0.10  -0.00
    16   7     0.00   0.00  -0.01    -0.07   0.15  -0.00     0.11   0.15   0.00
    17   7     0.00   0.00   0.08     0.08   0.10  -0.00     0.06   0.02  -0.00
    18   7    -0.00  -0.00  -0.01     0.10  -0.05   0.00    -0.09  -0.01  -0.00
    19   6     0.00  -0.00   0.14     0.02   0.04   0.00     0.04   0.19  -0.00
    20   6    -0.00  -0.00  -0.08    -0.16  -0.05   0.00     0.10  -0.06   0.00
    21   6    -0.00  -0.00  -0.11    -0.07   0.06   0.00    -0.03   0.00   0.00
    22   6    -0.00   0.00  -0.09     0.00   0.01  -0.00    -0.14   0.14   0.00
    23   6     0.00   0.00   0.08    -0.17  -0.06   0.00    -0.02  -0.10  -0.00
    24   6     0.00   0.00   0.07    -0.02  -0.08   0.00     0.03   0.04  -0.00
    25   7    -0.00   0.00  -0.01     0.10  -0.05  -0.00    -0.09  -0.01   0.00
    26   7     0.00  -0.00  -0.01    -0.07   0.15   0.00     0.11   0.15   0.00
    27   6    -0.00   0.00   0.14     0.02   0.04   0.00     0.04   0.19  -0.00
    28   6     0.00   0.00  -0.08    -0.16  -0.05  -0.00     0.10  -0.06   0.00
    29   6     0.00  -0.00  -0.11    -0.07   0.06  -0.00    -0.03   0.00   0.00
    30   6    -0.00   0.00  -0.09     0.00   0.01   0.00    -0.14   0.14   0.00
    31   6    -0.00  -0.00   0.08    -0.17  -0.06  -0.00    -0.02  -0.10  -0.00
    32   6     0.00   0.00   0.07    -0.02  -0.08   0.00     0.03   0.04  -0.00
    33   7    -0.00  -0.00   0.08     0.08   0.10   0.00     0.06   0.02   0.00
    34   7    -0.00   0.00   0.08    -0.02  -0.14  -0.00    -0.18   0.10  -0.00
    35   6     0.00  -0.00   0.13    -0.11  -0.13  -0.00     0.02  -0.11  -0.00
    36   6     0.00  -0.00   0.14    -0.03   0.01   0.00    -0.08  -0.03  -0.00
    37   6     0.00   0.00  -0.18     0.12  -0.10  -0.00    -0.09   0.10   0.00
    38   6     0.00  -0.00  -0.03    -0.00   0.07   0.00    -0.03  -0.06  -0.00
    39   6    -0.00  -0.00   0.04     0.18   0.05   0.00     0.06   0.03   0.00
    40   6    -0.00   0.00  -0.05    -0.06  -0.05  -0.00     0.10  -0.16  -0.00
    41   6     0.00  -0.00   0.05    -0.15   0.03   0.00     0.07  -0.11  -0.00
    42   6    -0.00  -0.00   0.08    -0.00  -0.02   0.00     0.09   0.02   0.00
    43   6    -0.00  -0.00  -0.10     0.05   0.17  -0.00     0.02   0.10  -0.00
    44   6     0.00   0.00  -0.15     0.05  -0.07  -0.00     0.05  -0.03   0.00
    45   6    -0.00  -0.00   0.18     0.17   0.05   0.00    -0.10  -0.02  -0.00
    46   6     0.00   0.00  -0.13    -0.08  -0.03  -0.00     0.01  -0.19  -0.00
    47   7    -0.00   0.00  -0.07     0.21   0.04  -0.00     0.01  -0.13  -0.00
    48   7     0.00   0.00  -0.07    -0.04   0.00  -0.00    -0.03   0.13   0.00
    49   1     0.00  -0.00   0.19    -0.11  -0.12   0.00    -0.06  -0.06  -0.00
    50   1    -0.00  -0.00  -0.17    -0.14   0.04  -0.00     0.11  -0.03   0.00
    51   1     0.00   0.00   0.29    -0.12  -0.13   0.00    -0.05  -0.04  -0.00
    52   1     0.00  -0.00  -0.29     0.01  -0.01  -0.00     0.05  -0.18   0.00
    53   1     0.00  -0.00  -0.13     0.01  -0.03  -0.00     0.05  -0.17  -0.00
    54   1     0.00   0.00   0.09    -0.15   0.04   0.00     0.10  -0.02   0.00
    55   1     0.00   0.00  -0.17    -0.14   0.04  -0.00     0.11  -0.03   0.00
    56   1    -0.00  -0.00   0.19    -0.11  -0.12  -0.00    -0.06  -0.06  -0.00
    57   1    -0.00  -0.00   0.29    -0.12  -0.13   0.00    -0.05  -0.04  -0.00
    58   1    -0.00   0.00  -0.29     0.01  -0.01  -0.00     0.05  -0.18  -0.00
    59   1    -0.00   0.00  -0.13     0.01  -0.03  -0.00     0.05  -0.17  -0.00
    60   1     0.00  -0.00   0.09    -0.15   0.04   0.00     0.10  -0.02   0.00
                     49                     50                     51
                      A                      A                      A
 Frequencies --    578.2905               578.5249               579.2959
 Red. masses --      8.0579                 7.9501                 4.8660
 Frc consts  --      1.5877                 1.5677                 0.9621
 IR Inten    --      0.0000                 0.0000                 0.0000
  Atom  AN      X      Y      Z        X      Y      Z        X      Y      Z
     1   6     0.01   0.06   0.00     0.08   0.09   0.00    -0.10   0.05  -0.00
     2   6     0.10  -0.00  -0.00     0.04  -0.04  -0.00     0.00  -0.08   0.00
     3   6     0.09   0.04   0.00    -0.14   0.11  -0.00     0.07  -0.04   0.00
     4   6    -0.06  -0.11   0.00     0.05  -0.11   0.00     0.00  -0.11   0.00
     5   6    -0.13  -0.01  -0.00    -0.01   0.00   0.00    -0.02   0.11  -0.00
     6   6    -0.00   0.09   0.00     0.07  -0.04  -0.00    -0.06  -0.04   0.00
     7   6     0.09  -0.03  -0.00     0.09  -0.04  -0.00    -0.06  -0.10   0.00
     8   6    -0.02   0.04   0.00     0.09   0.06   0.00    -0.03   0.07  -0.00
     9   6    -0.08  -0.15   0.00     0.06  -0.06   0.00     0.05   0.08  -0.00
    10   6     0.02   0.11  -0.00    -0.10   0.09  -0.00    -0.06   0.09  -0.00
    11   6     0.04   0.00   0.00    -0.11  -0.05   0.00     0.03  -0.11   0.00
    12   6     0.00   0.09   0.00     0.06  -0.05   0.00    -0.07  -0.01  -0.00
    13   7    -0.10   0.10  -0.00    -0.06  -0.11   0.00    -0.05  -0.02  -0.00
    14   7     0.09  -0.07   0.00     0.07   0.08  -0.00     0.03   0.02   0.00
    15   7    -0.09   0.08   0.00    -0.07  -0.08   0.00     0.01  -0.02  -0.00
    16   7    -0.08   0.07  -0.00    -0.07  -0.10  -0.00    -0.00   0.01   0.00
    17   7     0.09  -0.07  -0.00     0.10   0.11  -0.00    -0.02   0.04  -0.00
    18   7     0.12  -0.08   0.00     0.09   0.09   0.00    -0.00  -0.03   0.00
    19   6    -0.03   0.04   0.00     0.09   0.07   0.00    -0.06   0.05  -0.00
    20   6     0.14   0.10  -0.00    -0.05   0.06   0.00    -0.09  -0.04   0.00
    21   6     0.02  -0.07  -0.00    -0.08   0.07  -0.00     0.08   0.08   0.00
    22   6    -0.10   0.01   0.00    -0.04   0.04  -0.00     0.03   0.07   0.00
    23   6     0.09   0.07  -0.00    -0.16   0.04   0.00     0.08   0.01  -0.00
    24   6     0.01   0.13   0.00     0.04  -0.03   0.00    -0.11   0.01  -0.00
    25   7    -0.12   0.08   0.00    -0.09  -0.09   0.00     0.00   0.03   0.00
    26   7     0.08  -0.07  -0.00     0.07   0.10  -0.00     0.00  -0.01   0.00
    27   6     0.03  -0.04   0.00    -0.09  -0.07   0.00     0.06  -0.05  -0.00
    28   6    -0.14  -0.10  -0.00     0.05  -0.06   0.00     0.09   0.04   0.00
    29   6    -0.02   0.07  -0.00     0.08  -0.07  -0.00    -0.08  -0.08   0.00
    30   6     0.10  -0.01   0.00     0.04  -0.04  -0.00    -0.03  -0.07   0.00
    31   6    -0.09  -0.07  -0.00     0.16  -0.04   0.00    -0.08  -0.01  -0.00
    32   6    -0.01  -0.13   0.00    -0.04   0.03   0.00     0.11  -0.01  -0.00
    33   7    -0.09   0.07   0.00    -0.10  -0.11  -0.00     0.02  -0.04  -0.00
    34   7     0.09  -0.08   0.00     0.07   0.08   0.00    -0.01   0.02  -0.00
    35   6     0.06   0.11   0.00    -0.05   0.11   0.00    -0.00   0.11   0.00
    36   6     0.13   0.01  -0.00     0.01  -0.00   0.00     0.02  -0.11  -0.00
    37   6     0.00  -0.09  -0.00    -0.07   0.04  -0.00     0.06   0.04   0.00
    38   6    -0.01  -0.06   0.00    -0.08  -0.09   0.00     0.10  -0.05  -0.00
    39   6    -0.10   0.00   0.00    -0.04   0.04  -0.00    -0.00   0.08   0.00
    40   6    -0.09  -0.04  -0.00     0.14  -0.11  -0.00    -0.07   0.04   0.00
    41   6    -0.02  -0.11  -0.00     0.10  -0.09  -0.00     0.06  -0.09  -0.00
    42   6    -0.04  -0.00  -0.00     0.11   0.05  -0.00    -0.03   0.11   0.00
    43   6    -0.00  -0.09  -0.00    -0.06   0.05   0.00     0.07   0.01  -0.00
    44   6    -0.09   0.03  -0.00    -0.09   0.04  -0.00     0.06   0.10   0.00
    45   6     0.02  -0.04  -0.00    -0.09  -0.06   0.00     0.03  -0.07  -0.00
    46   6     0.08   0.15   0.00    -0.06   0.06   0.00    -0.05  -0.08  -0.00
    47   7    -0.09   0.07   0.00    -0.07  -0.08  -0.00    -0.03  -0.02  -0.00
    48   7     0.10  -0.10  -0.00     0.06   0.11   0.00     0.05   0.02  -0.00
    49   1    -0.04   0.19  -0.00    -0.20   0.06   0.00     0.19  -0.09  -0.00
    50   1     0.13   0.05  -0.00    -0.00   0.24  -0.00    -0.13  -0.17   0.00
    51   1    -0.18   0.00   0.00     0.06  -0.12   0.00     0.11  -0.22  -0.00
    52   1    -0.02  -0.13   0.00     0.18  -0.02   0.00     0.21   0.13  -0.00
    53   1     0.20   0.07   0.00    -0.05   0.14  -0.00     0.23   0.00   0.00
    54   1     0.04   0.20  -0.00    -0.14  -0.07  -0.00    -0.03   0.23  -0.00
    55   1    -0.13  -0.05  -0.00     0.00  -0.24  -0.00     0.13   0.17   0.00
    56   1     0.04  -0.19  -0.00     0.20  -0.06   0.00    -0.19   0.09  -0.00
    57   1     0.18  -0.00   0.00    -0.06   0.12   0.00    -0.11   0.22   0.00
    58   1     0.02   0.13   0.00    -0.18   0.02   0.00    -0.21  -0.13  -0.00
    59   1    -0.20  -0.07  -0.00     0.05  -0.14  -0.00    -0.23  -0.00  -0.00
    60   1    -0.04  -0.20  -0.00     0.14   0.07  -0.00     0.03  -0.23  -0.00
                     52                     53                     54
                      A                      A                      A
 Frequencies --    605.3303               605.6170               608.3977
 Red. masses --      5.9262                 5.9378                 3.3697
 Frc consts  --      1.2794                 1.2831                 0.7349
 IR Inten    --      0.0000                 0.0000                 0.0000
  Atom  AN      X      Y      Z        X      Y      Z        X      Y      Z
     1   6    -0.00   0.00   0.16     0.00  -0.00  -0.02     0.00  -0.00  -0.11
     2   6     0.00  -0.00  -0.18    -0.00   0.00   0.03    -0.00   0.00   0.08
     3   6    -0.00   0.00   0.13    -0.00   0.00  -0.01    -0.00   0.00  -0.00
     4   6     0.00   0.00   0.06     0.00  -0.00  -0.12     0.00   0.00   0.00
     5   6     0.00  -0.00   0.06     0.00  -0.00  -0.14    -0.00   0.00   0.11
     6   6    -0.00  -0.00  -0.06     0.00   0.00   0.17     0.00  -0.00  -0.08
     7   6    -0.00  -0.00  -0.08    -0.00   0.00   0.14     0.00   0.00   0.11
     8   6     0.00   0.00   0.10     0.00  -0.00  -0.15     0.00  -0.00  -0.08
     9   6     0.00  -0.00  -0.06     0.00   0.00   0.12    -0.00   0.00   0.00
    10   6     0.00  -0.00  -0.13    -0.00   0.00   0.01    -0.00   0.00  -0.00
    11   6     0.00  -0.00  -0.15    -0.00  -0.00   0.00     0.00  -0.00  -0.11
    12   6    -0.00   0.00   0.18    -0.00  -0.00   0.01    -0.00   0.00   0.08
    13   7     0.00  -0.00   0.03     0.00  -0.00   0.04    -0.00  -0.00  -0.00
    14   7    -0.00   0.00   0.02    -0.00   0.00   0.03     0.00   0.00  -0.00
    15   7     0.00   0.00   0.04    -0.00  -0.00  -0.00     0.00  -0.00   0.00
    16   7    -0.00  -0.00  -0.02    -0.00  -0.00   0.03     0.00  -0.00  -0.00
    17   7     0.00   0.00   0.05    -0.00  -0.00  -0.00     0.00  -0.00   0.00
    18   7     0.00  -0.00  -0.02    -0.00   0.00   0.05     0.00   0.00  -0.00
    19   6     0.00  -0.00   0.11     0.00  -0.00   0.14     0.00  -0.00   0.08
    20   6    -0.00  -0.00  -0.07    -0.00   0.00  -0.11     0.00   0.00  -0.00
    21   6    -0.00  -0.00  -0.09    -0.00  -0.00  -0.13    -0.00  -0.00  -0.11
    22   6    -0.00  -0.00  -0.08    -0.00  -0.00  -0.16     0.00  -0.00   0.08
    23   6     0.00   0.00   0.07     0.00   0.00   0.11     0.00   0.00  -0.00
    24   6     0.00  -0.00   0.08     0.00   0.00   0.13    -0.00   0.00  -0.11
    25   7     0.00  -0.00   0.02    -0.00   0.00  -0.05    -0.00   0.00   0.00
    26   7     0.00  -0.00   0.02    -0.00   0.00  -0.03     0.00   0.00   0.00
    27   6     0.00   0.00  -0.11     0.00   0.00  -0.14     0.00   0.00  -0.08
    28   6    -0.00  -0.00   0.07    -0.00  -0.00   0.11    -0.00   0.00   0.00
    29   6    -0.00   0.00   0.09    -0.00  -0.00   0.13    -0.00  -0.00   0.11
    30   6    -0.00  -0.00   0.08    -0.00  -0.00   0.16     0.00   0.00  -0.08
    31   6    -0.00   0.00  -0.07     0.00   0.00  -0.11    -0.00  -0.00   0.00
    32   6     0.00  -0.00  -0.08     0.00   0.00  -0.13    -0.00  -0.00   0.11
    33   7     0.00   0.00  -0.05     0.00   0.00   0.00     0.00   0.00  -0.00
    34   7     0.00   0.00  -0.04    -0.00  -0.00   0.00     0.00  -0.00  -0.00
    35   6    -0.00  -0.00  -0.06    -0.00  -0.00   0.12    -0.00  -0.00  -0.00
    36   6    -0.00   0.00  -0.06    -0.00  -0.00   0.14    -0.00   0.00  -0.11
    37   6    -0.00  -0.00   0.06     0.00   0.00  -0.17     0.00  -0.00   0.08
    38   6    -0.00   0.00  -0.16    -0.00  -0.00   0.02     0.00  -0.00   0.11
    39   6     0.00  -0.00   0.18    -0.00   0.00  -0.03    -0.00   0.00  -0.08
    40   6    -0.00   0.00  -0.13     0.00  -0.00   0.01     0.00  -0.00   0.00
    41   6     0.00  -0.00   0.13     0.00  -0.00  -0.01     0.00  -0.00   0.00
    42   6     0.00  -0.00   0.15     0.00   0.00  -0.00     0.00  -0.00   0.11
    43   6    -0.00   0.00  -0.18    -0.00  -0.00  -0.01    -0.00   0.00  -0.08
    44   6     0.00  -0.00   0.08     0.00   0.00  -0.14     0.00   0.00  -0.11
    45   6    -0.00   0.00  -0.10    -0.00  -0.00   0.15     0.00  -0.00   0.08
    46   6    -0.00  -0.00   0.06     0.00   0.00  -0.12    -0.00  -0.00  -0.00
    47   7    -0.00   0.00  -0.02    -0.00   0.00  -0.03     0.00  -0.00   0.00
    48   7    -0.00   0.00  -0.03    -0.00   0.00  -0.04    -0.00   0.00   0.00
    49   1     0.00   0.00   0.13     0.00   0.00   0.28     0.00   0.00   0.25
    50   1    -0.00  -0.00  -0.20    -0.00  -0.00  -0.23     0.00  -0.00   0.26
    51   1     0.00   0.00   0.11     0.00  -0.00  -0.29    -0.00  -0.00  -0.25
    52   1    -0.00  -0.00  -0.16    -0.00   0.00   0.25    -0.00  -0.00  -0.26
    53   1    -0.00   0.00   0.29     0.00  -0.00  -0.05    -0.00   0.00   0.26
    54   1     0.00  -0.00  -0.31    -0.00  -0.00  -0.01    -0.00   0.00   0.25
    55   1    -0.00  -0.00   0.20    -0.00  -0.00   0.23     0.00   0.00  -0.26
    56   1     0.00  -0.00  -0.13     0.00   0.00  -0.28     0.00   0.00  -0.25
    57   1    -0.00   0.00  -0.11    -0.00  -0.00   0.29    -0.00  -0.00   0.25
    58   1     0.00  -0.00   0.16     0.00   0.00  -0.25    -0.00  -0.00   0.26
    59   1    -0.00   0.00  -0.29     0.00  -0.00   0.05    -0.00   0.00  -0.26
    60   1     0.00  -0.00   0.31     0.00  -0.00   0.01    -0.00   0.00  -0.25
                     55                     56                     57
                      A                      A                      A
 Frequencies --    621.9969               625.0595               649.4671
 Red. masses --      9.9035                 5.7150                11.7640
 Frc consts  --      2.2574                 1.3155                 2.9236
 IR Inten    --      0.0000                 0.0000                 0.0006
  Atom  AN      X      Y      Z        X      Y      Z        X      Y      Z
     1   6     0.07   0.08  -0.00     0.00   0.00   0.11    -0.06  -0.05  -0.00
     2   6    -0.01  -0.03   0.00     0.00  -0.00  -0.12    -0.10  -0.00   0.00
     3   6    -0.11   0.11  -0.00    -0.00   0.00   0.09     0.03   0.09  -0.00
     4   6     0.04   0.15  -0.00     0.00   0.00   0.09    -0.09  -0.02   0.00
     5   6     0.10  -0.03  -0.00     0.00   0.00   0.11     0.07  -0.03   0.00
     6   6    -0.03  -0.00   0.00    -0.00  -0.00  -0.12     0.05  -0.09   0.00
     7   6    -0.10   0.03   0.00    -0.00  -0.00  -0.11     0.07  -0.01  -0.00
     8   6     0.03  -0.02  -0.00     0.00   0.00   0.12     0.09   0.05  -0.00
     9   6     0.03   0.15   0.00    -0.00   0.00  -0.09    -0.07   0.06  -0.00
    10   6    -0.12   0.10   0.00    -0.00   0.00  -0.09     0.09   0.03   0.00
    11   6    -0.07  -0.07   0.00    -0.00  -0.00  -0.11    -0.04  -0.06  -0.00
    12   6     0.03   0.02  -0.00    -0.00   0.00   0.12     0.00  -0.10   0.00
    13   7     0.06  -0.22   0.00     0.00  -0.00  -0.00     0.06  -0.21   0.00
    14   7    -0.01   0.02  -0.00    -0.00   0.00  -0.00    -0.06   0.21  -0.00
    15   7     0.01   0.01  -0.00     0.00   0.00  -0.00    -0.15  -0.16   0.00
    16   7    -0.02   0.01  -0.00     0.00   0.00   0.00     0.21  -0.05   0.00
    17   7    -0.16  -0.16   0.00    -0.00  -0.00   0.00     0.15   0.16  -0.00
    18   7     0.22  -0.06   0.00     0.00  -0.00   0.00    -0.22   0.05  -0.00
    19   6    -0.02   0.03   0.00    -0.00   0.00  -0.12     0.05   0.09  -0.00
    20   6     0.15   0.04  -0.00     0.00   0.00   0.09     0.06  -0.07  -0.00
    21   6     0.03  -0.10  -0.00     0.00  -0.00   0.11    -0.01   0.07   0.00
    22   6    -0.00  -0.04  -0.00     0.00  -0.00   0.12    -0.09   0.05   0.00
    23   6     0.15   0.05  -0.00    -0.00   0.00  -0.09    -0.02  -0.09   0.00
    24   6    -0.03   0.10   0.00    -0.00   0.00  -0.11    -0.03   0.07   0.00
    25   7    -0.22   0.06   0.00    -0.00   0.00   0.00    -0.22   0.05   0.00
    26   7     0.02  -0.01  -0.00    -0.00   0.00   0.00     0.21  -0.05  -0.00
    27   6     0.02  -0.03   0.00     0.00   0.00  -0.12     0.05   0.09   0.00
    28   6    -0.15  -0.04  -0.00    -0.00  -0.00   0.09     0.06  -0.07   0.00
    29   6    -0.03   0.10  -0.00    -0.00   0.00   0.11    -0.01   0.07   0.00
    30   6     0.00   0.04  -0.00    -0.00   0.00   0.12    -0.09   0.05  -0.00
    31   6    -0.15  -0.05   0.00     0.00  -0.00  -0.09    -0.02  -0.09  -0.00
    32   6     0.03  -0.10   0.00     0.00  -0.00  -0.11    -0.03   0.07   0.00
    33   7     0.16   0.16   0.00     0.00   0.00   0.00     0.15   0.16   0.00
    34   7    -0.01  -0.01  -0.00    -0.00  -0.00  -0.00    -0.15  -0.16  -0.00
    35   6    -0.04  -0.15  -0.00    -0.00  -0.00   0.09    -0.09  -0.02  -0.00
    36   6    -0.10   0.03  -0.00    -0.00  -0.00   0.11     0.07  -0.03  -0.00
    37   6     0.03   0.00   0.00     0.00   0.00  -0.12     0.05  -0.09  -0.00
    38   6    -0.07  -0.08  -0.00    -0.00  -0.00   0.11    -0.06  -0.05  -0.00
    39   6     0.01   0.03   0.00    -0.00   0.00  -0.12    -0.10  -0.00   0.00
    40   6     0.11  -0.11  -0.00     0.00  -0.00   0.09     0.03   0.09   0.00
    41   6     0.12  -0.10  -0.00     0.00   0.00  -0.09     0.09   0.03  -0.00
    42   6     0.07   0.07   0.00     0.00   0.00  -0.11    -0.04  -0.06  -0.00
    43   6    -0.03  -0.02  -0.00     0.00  -0.00   0.12     0.00  -0.10  -0.00
    44   6     0.10  -0.03   0.00     0.00   0.00  -0.11     0.07  -0.01   0.00
    45   6    -0.03   0.02  -0.00    -0.00  -0.00   0.12     0.09   0.05   0.00
    46   6    -0.03  -0.15   0.00     0.00   0.00  -0.09    -0.07   0.06   0.00
    47   7     0.01  -0.02   0.00     0.00  -0.00  -0.00    -0.06   0.21   0.00
    48   7    -0.06   0.22   0.00    -0.00   0.00  -0.00     0.06  -0.21  -0.00
    49   1     0.07   0.13  -0.00    -0.00   0.00  -0.22    -0.01  -0.10  -0.00
    50   1     0.12  -0.07  -0.00     0.00   0.00   0.22     0.06  -0.08  -0.00
    51   1     0.12   0.07  -0.00     0.00   0.00   0.22    -0.11  -0.01   0.00
    52   1    -0.08   0.12   0.00    -0.00  -0.00  -0.22    -0.09   0.05  -0.00
    53   1     0.00   0.14  -0.00    -0.00   0.00   0.22     0.04   0.09   0.00
    54   1    -0.14  -0.01   0.00     0.00  -0.00  -0.22     0.09   0.05   0.00
    55   1    -0.12   0.07  -0.00    -0.00  -0.00   0.22     0.06  -0.08  -0.00
    56   1    -0.07  -0.13   0.00     0.00  -0.00  -0.22    -0.01  -0.10  -0.00
    57   1    -0.12  -0.07  -0.00    -0.00  -0.00   0.22    -0.11  -0.01  -0.00
    58   1     0.08  -0.12  -0.00     0.00   0.00  -0.22    -0.09   0.05   0.00
    59   1    -0.00  -0.14  -0.00     0.00  -0.00   0.22     0.04   0.09   0.00
    60   1     0.14   0.01  -0.00     0.00   0.00  -0.22     0.09   0.05   0.00
                     58                     59                     60
                      A                      A                      A
 Frequencies --    654.2040               654.4059               662.6789
 Red. masses --      3.5896                 3.5914                 6.3198
 Frc consts  --      0.9051                 0.9062                 1.6352
 IR Inten    --      0.0001                 0.0000                 7.7562
  Atom  AN      X      Y      Z        X      Y      Z        X      Y      Z
     1   6    -0.00   0.00   0.13     0.00   0.00   0.04    -0.06   0.00  -0.00
     2   6     0.00  -0.00  -0.11     0.00   0.00   0.04    -0.07  -0.08   0.00
     3   6    -0.00  -0.00   0.02    -0.00  -0.00   0.05     0.12   0.06   0.00
     4   6     0.00  -0.00  -0.05     0.00   0.00  -0.01     0.04  -0.10   0.00
     5   6    -0.00  -0.00  -0.10    -0.00   0.00   0.09    -0.10   0.07   0.00
     6   6    -0.00   0.00   0.02    -0.00  -0.00  -0.12     0.00   0.03  -0.00
     7   6    -0.00  -0.00  -0.03    -0.00   0.00   0.13     0.08  -0.02   0.00
     8   6    -0.00   0.00   0.09    -0.00  -0.00  -0.08    -0.08   0.05  -0.00
     9   6     0.00  -0.00   0.04     0.00   0.00   0.04     0.04  -0.06   0.00
    10   6    -0.00  -0.00   0.02    -0.00  -0.00  -0.05     0.06   0.12  -0.00
    11   6    -0.00   0.00   0.13     0.00   0.00  -0.04     0.01  -0.05   0.00
    12   6     0.00  -0.00  -0.11     0.00   0.00  -0.04    -0.08  -0.08  -0.00
    13   7    -0.00   0.00  -0.03     0.00   0.00  -0.05    -0.11   0.06  -0.00
    14   7     0.00  -0.00   0.03     0.00  -0.00   0.04    -0.06   0.00   0.00
    15   7     0.00   0.00  -0.05     0.00   0.00   0.00     0.02   0.02   0.00
    16   7     0.00  -0.00   0.03    -0.00   0.00  -0.04    -0.00  -0.06  -0.00
    17   7    -0.00  -0.00   0.06    -0.00   0.00  -0.00     0.12   0.11  -0.00
    18   7    -0.00   0.00  -0.03     0.00   0.00   0.05     0.05  -0.11   0.00
    19   6     0.00  -0.00   0.09     0.00   0.00   0.08     0.06  -0.09  -0.00
    20   6    -0.00   0.00   0.04    -0.00  -0.00  -0.04    -0.06   0.05   0.00
    21   6    -0.00  -0.00  -0.03    -0.00  -0.00  -0.13    -0.02   0.07  -0.00
    22   6     0.00  -0.00   0.02     0.00   0.00   0.12     0.03  -0.01   0.00
    23   6    -0.00   0.00  -0.05    -0.00  -0.00   0.01    -0.10   0.05   0.00
    24   6    -0.00  -0.00  -0.10    -0.00   0.00  -0.09     0.08  -0.09  -0.00
    25   7    -0.00  -0.00  -0.03    -0.00  -0.00   0.05     0.05  -0.11  -0.00
    26   7    -0.00  -0.00   0.03     0.00   0.00  -0.04    -0.00  -0.06  -0.00
    27   6    -0.00   0.00   0.09    -0.00   0.00   0.08     0.06  -0.09   0.00
    28   6     0.00  -0.00   0.04     0.00   0.00  -0.04    -0.06   0.05  -0.00
    29   6     0.00   0.00  -0.03     0.00   0.00  -0.13    -0.02   0.07  -0.00
    30   6    -0.00  -0.00   0.02    -0.00  -0.00   0.12     0.03  -0.01   0.00
    31   6     0.00  -0.00  -0.05     0.00   0.00   0.01    -0.10   0.05  -0.00
    32   6     0.00   0.00  -0.10     0.00   0.00  -0.09     0.08  -0.09  -0.00
    33   7     0.00   0.00   0.06     0.00  -0.00  -0.00     0.12   0.11   0.00
    34   7    -0.00  -0.00  -0.05    -0.00  -0.00   0.00     0.02   0.02  -0.00
    35   6    -0.00   0.00  -0.05    -0.00   0.00  -0.01     0.04  -0.10  -0.00
    36   6     0.00   0.00  -0.10     0.00  -0.00   0.09    -0.10   0.07   0.00
    37   6     0.00  -0.00   0.02     0.00   0.00  -0.12     0.00   0.03  -0.00
    38   6     0.00  -0.00   0.13    -0.00  -0.00   0.04    -0.06   0.00   0.00
    39   6    -0.00   0.00  -0.11    -0.00  -0.00   0.04    -0.07  -0.08  -0.00
    40   6     0.00  -0.00   0.02     0.00   0.00   0.05     0.12   0.06   0.00
    41   6     0.00  -0.00   0.02     0.00   0.00  -0.05     0.06   0.12  -0.00
    42   6     0.00  -0.00   0.13    -0.00  -0.00  -0.04     0.01  -0.05  -0.00
    43   6    -0.00   0.00  -0.11    -0.00  -0.00  -0.04    -0.08  -0.08  -0.00
    44   6     0.00   0.00  -0.03    -0.00  -0.00   0.13     0.08  -0.02   0.00
    45   6     0.00  -0.00   0.09     0.00   0.00  -0.08    -0.08   0.05   0.00
    46   6    -0.00   0.00   0.04    -0.00   0.00   0.04     0.04  -0.06  -0.00
    47   7    -0.00   0.00   0.03    -0.00   0.00   0.04    -0.06   0.00   0.00
    48   7     0.00  -0.00  -0.03     0.00  -0.00  -0.05    -0.11   0.06   0.00
    49   1     0.00   0.00   0.09     0.00  -0.00   0.35    -0.09   0.04   0.00
    50   1     0.00   0.00   0.26     0.00  -0.00   0.25    -0.01   0.23   0.00
    51   1     0.00   0.00   0.08     0.00  -0.00  -0.35     0.01  -0.07  -0.00
    52   1     0.00   0.00   0.26     0.00  -0.00  -0.25     0.21  -0.01  -0.00
    53   1     0.00  -0.00  -0.34    -0.00  -0.00   0.10     0.26   0.09   0.00
    54   1     0.00  -0.00  -0.34    -0.00  -0.00  -0.10     0.09   0.27  -0.00
    55   1    -0.00  -0.00   0.26    -0.00  -0.00   0.25    -0.01   0.23   0.00
    56   1    -0.00  -0.00   0.09    -0.00  -0.00   0.35    -0.09   0.04   0.00
    57   1    -0.00   0.00   0.08    -0.00   0.00  -0.35     0.01  -0.07  -0.00
    58   1    -0.00  -0.00   0.26    -0.00   0.00  -0.25     0.21  -0.01  -0.00
    59   1    -0.00   0.00  -0.34     0.00   0.00   0.10     0.26   0.09  -0.00
    60   1    -0.00   0.00  -0.34     0.00   0.00  -0.10     0.09   0.27  -0.00
                     61                     62                     63
                      A                      A                      A
 Frequencies --    662.7578               664.2756               664.4420
 Red. masses --      6.3222                 8.4869                 8.4897
 Frc consts  --      1.6362                 2.2065                 2.2083
 IR Inten    --      7.7829                 0.0000                 0.0000
  Atom  AN      X      Y      Z        X      Y      Z        X      Y      Z
     1   6     0.09   0.06   0.00     0.08   0.06  -0.00     0.01   0.03  -0.00
     2   6    -0.02  -0.06  -0.00     0.11  -0.00   0.00    -0.02  -0.06   0.00
     3   6    -0.05   0.05  -0.00    -0.10  -0.12  -0.00     0.01   0.07  -0.00
     4   6     0.11  -0.03  -0.00     0.13   0.01   0.00     0.10  -0.03   0.00
     5   6     0.03   0.02  -0.00    -0.02   0.02  -0.00    -0.09   0.04   0.00
     6   6    -0.12   0.01   0.00    -0.08   0.03   0.00    -0.01   0.09  -0.00
     7   6    -0.09  -0.03   0.00    -0.10   0.01  -0.00     0.00  -0.01   0.00
     8   6    -0.08   0.01  -0.00    -0.08  -0.07   0.00    -0.07   0.03  -0.00
     9   6     0.13   0.04   0.00     0.13  -0.03  -0.00     0.08  -0.06   0.00
    10   6    -0.05   0.06  -0.00    -0.13  -0.08   0.00     0.04   0.06  -0.00
    11   6    -0.06  -0.10   0.00     0.02   0.05  -0.00    -0.06  -0.07  -0.00
    12   6     0.05   0.01  -0.00     0.04   0.09   0.00     0.05  -0.06   0.00
    13   7    -0.02  -0.15   0.00    -0.03   0.17   0.00    -0.12  -0.01  -0.00
    14   7    -0.03  -0.03   0.00     0.06  -0.22   0.00    -0.00  -0.03  -0.00
    15   7    -0.05   0.04  -0.00     0.06   0.07   0.00     0.15   0.15  -0.00
    16   7     0.03   0.02   0.00    -0.13   0.04  -0.00     0.18  -0.04   0.00
    17   7    -0.07   0.08   0.00    -0.13   0.03  -0.00    -0.07  -0.15  -0.00
    18   7     0.15   0.01   0.00     0.12   0.07  -0.00    -0.11   0.10  -0.00
    19   6    -0.01   0.07   0.00     0.07   0.00  -0.00    -0.02  -0.10  -0.00
    20   6    -0.04  -0.12   0.00    -0.02  -0.03   0.00    -0.07   0.15  -0.00
    21   6     0.03   0.10  -0.00    -0.02   0.07   0.00    -0.00  -0.07  -0.00
    22   6    -0.01   0.12   0.00     0.04   0.05  -0.00     0.09  -0.07  -0.00
    23   6     0.02  -0.10  -0.00    -0.03  -0.02   0.00    -0.02   0.16   0.00
    24   6    -0.01  -0.04  -0.00     0.01  -0.05   0.00     0.04  -0.08   0.00
    25   7     0.15   0.01  -0.00    -0.12  -0.07  -0.00     0.11  -0.10  -0.00
    26   7     0.03   0.02   0.00     0.13  -0.04  -0.00    -0.18   0.04   0.00
    27   6    -0.01   0.07   0.00    -0.07  -0.00  -0.00     0.02   0.10  -0.00
    28   6    -0.04  -0.12  -0.00     0.02   0.03   0.00     0.07  -0.15  -0.00
    29   6     0.03   0.10   0.00     0.02  -0.07   0.00     0.00   0.07   0.00
    30   6    -0.01   0.12   0.00    -0.04  -0.05  -0.00    -0.09   0.07  -0.00
    31   6     0.02  -0.10  -0.00     0.03   0.02   0.00     0.02  -0.16   0.00
    32   6    -0.01  -0.04  -0.00    -0.01   0.05   0.00    -0.04   0.08   0.00
    33   7    -0.07   0.08   0.00     0.13  -0.03  -0.00     0.07   0.15   0.00
    34   7    -0.05   0.04  -0.00    -0.06  -0.07  -0.00    -0.15  -0.15  -0.00
    35   6     0.11  -0.03  -0.00    -0.13  -0.01   0.00    -0.10   0.03   0.00
    36   6     0.03   0.02  -0.00     0.02  -0.02  -0.00     0.09  -0.04   0.00
    37   6    -0.12   0.01   0.00     0.08  -0.03   0.00     0.01  -0.09  -0.00
    38   6     0.09   0.06   0.00    -0.08  -0.06  -0.00    -0.01  -0.03  -0.00
    39   6    -0.02  -0.06  -0.00    -0.11   0.00   0.00     0.02   0.06   0.00
    40   6    -0.05   0.05   0.00     0.10   0.12  -0.00    -0.01  -0.07  -0.00
    41   6    -0.05   0.06   0.00     0.13   0.08   0.00    -0.04  -0.06  -0.00
    42   6    -0.06  -0.10   0.00    -0.02  -0.05  -0.00     0.06   0.07  -0.00
    43   6     0.05   0.01  -0.00    -0.04  -0.09   0.00    -0.05   0.06   0.00
    44   6    -0.09  -0.03  -0.00     0.10  -0.01  -0.00    -0.00   0.01   0.00
    45   6    -0.08   0.01   0.00     0.08   0.07   0.00     0.07  -0.03  -0.00
    46   6     0.13   0.04   0.00    -0.13   0.03  -0.00    -0.08   0.06   0.00
    47   7    -0.03  -0.03   0.00    -0.06   0.22   0.00     0.00   0.03  -0.00
    48   7    -0.02  -0.15  -0.00     0.03  -0.17  -0.00     0.12   0.01   0.00
    49   1     0.16  -0.23  -0.00     0.04  -0.08  -0.00    -0.09   0.22  -0.00
    50   1    -0.06  -0.19   0.00    -0.00   0.03  -0.00    -0.04   0.24  -0.00
    51   1     0.24  -0.17  -0.00     0.21  -0.08   0.00     0.10  -0.03  -0.00
    52   1     0.21   0.07   0.00     0.16  -0.03   0.00     0.19  -0.02  -0.00
    53   1     0.07   0.09  -0.00    -0.15  -0.13   0.00     0.11   0.09   0.00
    54   1    -0.07  -0.04  -0.00    -0.15  -0.19   0.00     0.03   0.03   0.00
    55   1    -0.06  -0.19   0.00     0.00  -0.03  -0.00     0.04  -0.24  -0.00
    56   1     0.16  -0.23  -0.00    -0.04   0.08  -0.00     0.09  -0.22  -0.00
    57   1     0.24  -0.17   0.00    -0.21   0.08   0.00    -0.10   0.03  -0.00
    58   1     0.21   0.07   0.00    -0.16   0.03   0.00    -0.19   0.02  -0.00
    59   1     0.07   0.09  -0.00     0.15   0.13   0.00    -0.11  -0.09   0.00
    60   1    -0.07  -0.04  -0.00     0.15   0.19   0.00    -0.03  -0.03   0.00
                     64                     65                     66
                      A                      A                      A
 Frequencies --    724.6332               724.6773               728.3923
 Red. masses --      3.4998                 3.5024                10.8104
 Frc consts  --      1.0828                 1.0837                 3.3793
 IR Inten    --      0.0000                 0.0000                 2.3470
  Atom  AN      X      Y      Z        X      Y      Z        X      Y      Z
     1   6     0.00  -0.00  -0.07     0.00   0.00   0.08     0.06  -0.02   0.00
     2   6    -0.00   0.00   0.13     0.00  -0.00   0.02    -0.10   0.07  -0.00
     3   6     0.00  -0.00  -0.02    -0.00  -0.00   0.05     0.11  -0.12   0.00
     4   6    -0.00  -0.00   0.03     0.00   0.00   0.04    -0.07  -0.07   0.00
     5   6     0.00  -0.00   0.03    -0.00   0.00   0.11     0.04  -0.06   0.00
     6   6    -0.00   0.00   0.08    -0.00  -0.00  -0.10    -0.02   0.06  -0.00
     7   6     0.00  -0.00  -0.06     0.00   0.00   0.09     0.02  -0.02   0.00
     8   6    -0.00   0.00  -0.05    -0.00  -0.00  -0.12     0.01   0.08  -0.00
     9   6    -0.00  -0.00  -0.04     0.00   0.00   0.03    -0.05  -0.08   0.00
    10   6     0.00  -0.00  -0.05    -0.00  -0.00  -0.02     0.12  -0.10   0.00
    11   6     0.00  -0.00  -0.11     0.00   0.00  -0.01     0.02  -0.07   0.00
    12   6    -0.00   0.00   0.08     0.00  -0.00  -0.11    -0.07   0.10  -0.00
    13   7     0.00  -0.00   0.04    -0.00   0.00  -0.05     0.07  -0.20  -0.00
    14   7    -0.00   0.00  -0.04    -0.00  -0.00   0.06    -0.12   0.26   0.00
    15   7    -0.00  -0.00   0.03    -0.00  -0.00   0.07    -0.05   0.08   0.00
    16   7    -0.00   0.00  -0.07    -0.00  -0.00  -0.01    -0.24   0.12   0.00
    17   7     0.00   0.00  -0.02     0.00   0.00  -0.06     0.01  -0.04  -0.00
    18   7     0.00  -0.00   0.07     0.00   0.00   0.01     0.19  -0.07  -0.00
    19   6    -0.00  -0.00  -0.04    -0.00  -0.00  -0.12    -0.07  -0.00  -0.00
    20   6     0.00   0.00   0.05     0.00  -0.00  -0.01     0.06   0.06  -0.00
    21   6     0.00   0.00   0.11     0.00   0.00   0.02     0.02  -0.03  -0.00
    22   6    -0.00  -0.00  -0.13    -0.00  -0.00  -0.02    -0.04   0.02   0.00
    23   6     0.00   0.00   0.00     0.00  -0.00   0.05     0.05   0.06   0.00
    24   6     0.00  -0.00   0.05     0.00   0.00   0.10     0.06  -0.04   0.00
    25   7     0.00  -0.00  -0.07     0.00   0.00  -0.01     0.19  -0.07   0.00
    26   7    -0.00   0.00   0.07    -0.00  -0.00   0.01    -0.24   0.12  -0.00
    27   6    -0.00  -0.00   0.04    -0.00  -0.00   0.12    -0.07  -0.00   0.00
    28   6     0.00   0.00  -0.05     0.00  -0.00   0.01     0.06   0.06   0.00
    29   6     0.00   0.00  -0.11     0.00   0.00  -0.02     0.02  -0.03   0.00
    30   6    -0.00  -0.00   0.13    -0.00  -0.00   0.02    -0.04   0.02  -0.00
    31   6     0.00   0.00  -0.00     0.00   0.00  -0.05     0.05   0.06  -0.00
    32   6     0.00  -0.00  -0.05     0.00   0.00  -0.10     0.06  -0.04   0.00
    33   7     0.00   0.00   0.02     0.00   0.00   0.06     0.01  -0.04  -0.00
    34   7    -0.00  -0.00  -0.03    -0.00  -0.00  -0.07    -0.05   0.08   0.00
    35   6    -0.00   0.00  -0.03     0.00   0.00  -0.04    -0.07  -0.07  -0.00
    36   6     0.00  -0.00  -0.03     0.00   0.00  -0.11     0.04  -0.06  -0.00
    37   6    -0.00   0.00  -0.08    -0.00  -0.00   0.10    -0.02   0.06   0.00
    38   6     0.00  -0.00   0.07     0.00   0.00  -0.08     0.06  -0.02  -0.00
    39   6    -0.00   0.00  -0.13     0.00  -0.00  -0.02    -0.10   0.07   0.00
    40   6     0.00  -0.00   0.02    -0.00   0.00  -0.05     0.11  -0.12  -0.00
    41   6     0.00  -0.00   0.05    -0.00  -0.00   0.02     0.12  -0.10  -0.00
    42   6     0.00  -0.00   0.11     0.00   0.00   0.01     0.02  -0.07  -0.00
    43   6    -0.00   0.00  -0.08     0.00  -0.00   0.11    -0.07   0.10   0.00
    44   6     0.00  -0.00   0.06     0.00   0.00  -0.09     0.02  -0.02  -0.00
    45   6    -0.00  -0.00   0.05    -0.00  -0.00   0.12     0.01   0.08   0.00
    46   6    -0.00  -0.00   0.04     0.00   0.00  -0.03    -0.05  -0.08  -0.00
    47   7    -0.00   0.00   0.04    -0.00  -0.00  -0.06    -0.12   0.26   0.00
    48   7     0.00  -0.00  -0.04    -0.00   0.00   0.05     0.07  -0.20   0.00
    49   1    -0.00   0.00  -0.32     0.00  -0.00  -0.16    -0.01   0.12   0.00
    50   1     0.00   0.00  -0.23     0.00  -0.00  -0.28     0.07   0.09   0.00
    51   1    -0.00   0.00   0.12     0.00   0.00  -0.34    -0.12  -0.02  -0.00
    52   1    -0.00  -0.00  -0.02    -0.00   0.00  -0.36    -0.08  -0.09  -0.00
    53   1    -0.00  -0.00   0.35    -0.00  -0.00  -0.06     0.06  -0.13  -0.00
    54   1     0.00  -0.00   0.30    -0.00  -0.00  -0.20     0.14  -0.04  -0.00
    55   1     0.00   0.00   0.23     0.00  -0.00   0.28     0.07   0.09  -0.00
    56   1    -0.00   0.00   0.32     0.00  -0.00   0.16    -0.01   0.12  -0.00
    57   1    -0.00   0.00  -0.12     0.00   0.00   0.34    -0.12  -0.02   0.00
    58   1    -0.00  -0.00   0.02    -0.00   0.00   0.36    -0.08  -0.09   0.00
    59   1    -0.00  -0.00  -0.35    -0.00  -0.00   0.06     0.06  -0.13   0.00
    60   1     0.00   0.00  -0.30    -0.00  -0.00   0.20     0.14  -0.04   0.00
                     67                     68                     69
                      A                      A                      A
 Frequencies --    728.6235               742.4820               750.8843
 Red. masses --     10.8102                10.9875                 9.6968
 Frc consts  --      3.3814                 3.5688                 3.2213
 IR Inten    --      2.3344                 0.0000                 0.0000
  Atom  AN      X      Y      Z        X      Y      Z        X      Y      Z
     1   6    -0.06  -0.02   0.00    -0.05   0.01  -0.00    -0.04   0.01   0.00
     2   6     0.01   0.03   0.00     0.07  -0.06   0.00     0.10   0.06  -0.00
     3   6     0.03   0.04   0.00    -0.09   0.10  -0.00    -0.06  -0.03   0.00
     4   6    -0.01  -0.13   0.00     0.04   0.12  -0.00    -0.04  -0.14   0.00
     5   6    -0.01  -0.04   0.00    -0.01   0.05  -0.00     0.09  -0.09   0.00
     6   6     0.02   0.10  -0.00    -0.02  -0.09   0.00    -0.08   0.11  -0.00
     7   6    -0.07  -0.05   0.00     0.03   0.03  -0.00    -0.12  -0.03   0.00
     8   6     0.05   0.08  -0.00    -0.02  -0.08   0.00     0.07   0.07  -0.00
     9   6     0.00  -0.13   0.00     0.02   0.13  -0.00     0.01  -0.16   0.00
    10   6     0.02   0.04  -0.00    -0.10   0.08  -0.00    -0.09  -0.02   0.00
    11   6    -0.02  -0.05  -0.00    -0.01   0.05  -0.00     0.02   0.02   0.00
    12   6     0.04   0.00  -0.00     0.06  -0.06   0.00     0.06   0.04  -0.00
    13   7    -0.01  -0.11  -0.00    -0.03   0.13   0.00     0.13  -0.10   0.00
    14   7     0.04   0.15   0.00     0.07  -0.25   0.00     0.10   0.12   0.00
    15   7     0.23   0.22   0.00    -0.18  -0.18   0.00    -0.11   0.14   0.00
    16   7     0.19   0.03  -0.00     0.25  -0.06   0.00     0.12   0.02   0.00
    17   7    -0.17  -0.17  -0.00     0.09   0.09   0.00    -0.13   0.06  -0.00
    18   7    -0.14   0.00   0.00    -0.13   0.03   0.00    -0.16   0.08  -0.00
    19   6     0.09   0.06  -0.00    -0.08  -0.03   0.00    -0.06  -0.01   0.00
    20   6    -0.14  -0.01   0.00     0.13   0.02  -0.00     0.14  -0.03  -0.00
    21   6    -0.05  -0.06   0.00     0.03   0.03  -0.00     0.01   0.10   0.00
    22   6     0.11   0.02  -0.00    -0.08  -0.02   0.00    -0.10   0.10   0.00
    23   6    -0.14  -0.03   0.00     0.12   0.05  -0.00     0.11  -0.00  -0.00
    24   6    -0.04  -0.01   0.00     0.04  -0.01  -0.00     0.08  -0.06  -0.00
    25   7    -0.14   0.00  -0.00     0.13  -0.03   0.00     0.16  -0.08  -0.00
    26   7     0.19   0.03   0.00    -0.25   0.06   0.00    -0.12  -0.02   0.00
    27   6     0.09   0.06   0.00     0.08   0.03   0.00     0.06   0.01  -0.00
    28   6    -0.14  -0.01  -0.00    -0.13  -0.02  -0.00    -0.14   0.03  -0.00
    29   6    -0.05  -0.06  -0.00    -0.03  -0.03  -0.00    -0.01  -0.10   0.00
    30   6     0.11   0.02   0.00     0.08   0.02   0.00     0.10  -0.10   0.00
    31   6    -0.14  -0.03  -0.00    -0.12  -0.05  -0.00    -0.11   0.00  -0.00
    32   6    -0.04  -0.01  -0.00    -0.04   0.01  -0.00    -0.08   0.06   0.00
    33   7    -0.17  -0.17   0.00    -0.09  -0.09  -0.00     0.13  -0.06  -0.00
    34   7     0.23   0.22  -0.00     0.18   0.18   0.00     0.11  -0.14   0.00
    35   6    -0.01  -0.13  -0.00    -0.04  -0.12  -0.00     0.04   0.14   0.00
    36   6    -0.01  -0.04  -0.00     0.01  -0.05  -0.00    -0.09   0.09   0.00
    37   6     0.02   0.10   0.00     0.02   0.09   0.00     0.08  -0.11  -0.00
    38   6    -0.06  -0.02  -0.00     0.05  -0.01  -0.00     0.04  -0.01   0.00
    39   6     0.01   0.03  -0.00    -0.07   0.06   0.00    -0.10  -0.06  -0.00
    40   6     0.03   0.04  -0.00     0.09  -0.10  -0.00     0.06   0.03   0.00
    41   6     0.02   0.04   0.00     0.10  -0.08  -0.00     0.09   0.02   0.00
    42   6    -0.02  -0.05   0.00     0.01  -0.05  -0.00    -0.02  -0.02   0.00
    43   6     0.04   0.00   0.00    -0.06   0.06   0.00    -0.06  -0.04  -0.00
    44   6    -0.07  -0.05  -0.00    -0.03  -0.03  -0.00     0.12   0.03   0.00
    45   6     0.05   0.08   0.00     0.02   0.08   0.00    -0.07  -0.07  -0.00
    46   6     0.00  -0.13  -0.00    -0.02  -0.13  -0.00    -0.01   0.16   0.00
    47   7     0.04   0.15  -0.00    -0.07   0.25   0.00    -0.10  -0.12  -0.00
    48   7    -0.01  -0.11   0.00     0.03  -0.13  -0.00    -0.13   0.10   0.00
    49   1    -0.13  -0.05  -0.00     0.09   0.08   0.00     0.15  -0.03  -0.00
    50   1    -0.13   0.06  -0.00     0.12  -0.02   0.00     0.15  -0.03  -0.00
    51   1    -0.02  -0.13  -0.00     0.08   0.09   0.00    -0.01  -0.18  -0.00
    52   1     0.08  -0.11  -0.00    -0.03   0.12   0.00    -0.02  -0.18  -0.00
    53   1     0.09   0.06  -0.00    -0.04   0.12   0.00    -0.10  -0.04  -0.00
    54   1     0.03   0.10  -0.00    -0.12   0.04   0.00    -0.10  -0.04  -0.00
    55   1    -0.13   0.06   0.00    -0.12   0.02   0.00    -0.15   0.03  -0.00
    56   1    -0.13  -0.05   0.00    -0.09  -0.08   0.00    -0.15   0.03  -0.00
    57   1    -0.02  -0.13   0.00    -0.08  -0.09   0.00     0.01   0.18  -0.00
    58   1     0.08  -0.11   0.00     0.03  -0.12   0.00     0.02   0.18  -0.00
    59   1     0.09   0.06  -0.00     0.04  -0.12   0.00     0.10   0.04  -0.00
    60   1     0.03   0.10   0.00     0.12  -0.04   0.00     0.10   0.04  -0.00
                     70                     71                     72
                      A                      A                      A
 Frequencies --    750.8925               766.0179               771.7049
 Red. masses --      9.6963                 2.4546                 9.0900
 Frc consts  --      3.2212                 0.8486                 3.1895
 IR Inten    --      0.0000                64.5833                 0.0000
  Atom  AN      X      Y      Z        X      Y      Z        X      Y      Z
     1   6    -0.12  -0.04  -0.00     0.00   0.00   0.05     0.09   0.05  -0.00
     2   6     0.10  -0.02   0.00    -0.00  -0.00  -0.07    -0.11   0.01   0.00
     3   6    -0.08   0.14  -0.00     0.00   0.00   0.03     0.08  -0.11  -0.00
     4   6    -0.09  -0.04   0.00     0.00   0.00   0.03     0.05   0.13  -0.00
     5   6     0.04  -0.01  -0.00    -0.00   0.00   0.05    -0.09   0.06  -0.00
     6   6     0.07   0.01   0.00     0.00  -0.00  -0.07     0.05  -0.10   0.00
     7   6    -0.04  -0.03  -0.00     0.00   0.00   0.05     0.10   0.01  -0.00
     8   6     0.12   0.00   0.00    -0.00  -0.00  -0.07    -0.09  -0.07   0.00
     9   6    -0.07  -0.02  -0.00     0.00   0.00   0.03     0.01   0.14  -0.00
    10   6    -0.11   0.10  -0.00     0.00  -0.00   0.03     0.11  -0.08  -0.00
    11   6     0.03   0.13  -0.00    -0.00   0.00   0.05    -0.05  -0.09  -0.00
    12   6    -0.01  -0.13   0.00     0.00   0.00  -0.07    -0.01   0.11   0.00
    13   7     0.06   0.15  -0.00    -0.00   0.00  -0.04    -0.11  -0.03   0.00
    14   7     0.15  -0.04   0.00    -0.00  -0.00   0.05    -0.13  -0.04  -0.00
    15   7     0.11   0.06  -0.00    -0.00  -0.00   0.05     0.10  -0.09  -0.00
    16   7    -0.01  -0.18  -0.00     0.00   0.00   0.05     0.03   0.13  -0.00
    17   7    -0.10  -0.15   0.00     0.00  -0.00  -0.04     0.08  -0.08   0.00
    18   7    -0.08  -0.12   0.00     0.00   0.00  -0.04     0.03   0.11   0.00
    19   6     0.03   0.14  -0.00    -0.00   0.00  -0.07     0.07   0.09   0.00
    20   6    -0.08  -0.06   0.00    -0.00  -0.00   0.03    -0.14  -0.02  -0.00
    21   6    -0.03  -0.09  -0.00     0.00  -0.00   0.05    -0.00  -0.10  -0.00
    22   6     0.05   0.03  -0.00     0.00  -0.00  -0.07     0.10  -0.04   0.00
    23   6    -0.09  -0.10   0.00    -0.00  -0.00   0.03    -0.13  -0.06  -0.00
    24   6    -0.05   0.07   0.00    -0.00   0.00   0.05    -0.06   0.09  -0.00
    25   7     0.08   0.12   0.00     0.00   0.00  -0.04     0.03   0.11   0.00
    26   7     0.01   0.18   0.00    -0.00   0.00   0.05     0.03   0.13  -0.00
    27   6    -0.03  -0.14  -0.00     0.00   0.00  -0.07     0.07   0.09   0.00
    28   6     0.08   0.06   0.00    -0.00  -0.00   0.03    -0.14  -0.02  -0.00
    29   6     0.03   0.09  -0.00    -0.00  -0.00   0.05    -0.00  -0.10  -0.00
    30   6    -0.05  -0.03   0.00     0.00   0.00  -0.07     0.10  -0.04   0.00
    31   6     0.09   0.10   0.00    -0.00  -0.00   0.03    -0.13  -0.06  -0.00
    32   6     0.05  -0.07  -0.00    -0.00   0.00   0.05    -0.06   0.09  -0.00
    33   7     0.10   0.15   0.00     0.00   0.00  -0.04     0.08  -0.08   0.00
    34   7    -0.11  -0.06  -0.00     0.00  -0.00   0.05     0.10  -0.09  -0.00
    35   6     0.09   0.04   0.00     0.00   0.00   0.03     0.05   0.13  -0.00
    36   6    -0.04   0.01  -0.00    -0.00  -0.00   0.05    -0.09   0.06  -0.00
    37   6    -0.07  -0.01   0.00     0.00  -0.00  -0.07     0.05  -0.10   0.00
    38   6     0.12   0.04  -0.00     0.00   0.00   0.05     0.09   0.05  -0.00
    39   6    -0.10   0.02   0.00    -0.00   0.00  -0.07    -0.11   0.01   0.00
    40   6     0.08  -0.14  -0.00     0.00  -0.00   0.03     0.08  -0.11  -0.00
    41   6     0.11  -0.10  -0.00     0.00  -0.00   0.03     0.11  -0.08  -0.00
    42   6    -0.03  -0.13  -0.00    -0.00  -0.00   0.05    -0.05  -0.09  -0.00
    43   6     0.01   0.13   0.00    -0.00   0.00  -0.07    -0.01   0.11   0.00
    44   6     0.04   0.03  -0.00     0.00  -0.00   0.05     0.10   0.01  -0.00
    45   6    -0.12  -0.00   0.00    -0.00  -0.00  -0.07    -0.09  -0.07   0.00
    46   6     0.07   0.02  -0.00     0.00   0.00   0.03     0.01   0.14  -0.00
    47   7    -0.15   0.04   0.00    -0.00  -0.00   0.05    -0.13  -0.04  -0.00
    48   7    -0.06  -0.15  -0.00    -0.00  -0.00  -0.04    -0.11  -0.03   0.00
    49   1    -0.10  -0.10   0.00    -0.00  -0.00  -0.27    -0.15  -0.04   0.00
    50   1    -0.10  -0.11   0.00    -0.00  -0.00  -0.27    -0.15  -0.04   0.00
    51   1    -0.11  -0.03   0.00     0.00   0.00  -0.27     0.04   0.15   0.00
    52   1    -0.11  -0.03   0.00    -0.00   0.00  -0.27     0.04   0.15   0.00
    53   1    -0.12   0.13   0.00     0.00  -0.00  -0.27     0.11  -0.11   0.00
    54   1    -0.11   0.15   0.00     0.00  -0.00  -0.27     0.11  -0.11   0.00
    55   1     0.10   0.11   0.00     0.00   0.00  -0.27    -0.15  -0.04   0.00
    56   1     0.10   0.10   0.00     0.00  -0.00  -0.27    -0.15  -0.04   0.00
    57   1     0.11   0.03   0.00     0.00   0.00  -0.27     0.04   0.15   0.00
    58   1     0.11   0.03   0.00     0.00   0.00  -0.27     0.04   0.15   0.00
    59   1     0.12  -0.13   0.00    -0.00  -0.00  -0.27     0.11  -0.11   0.00
    60   1     0.11  -0.15   0.00     0.00  -0.00  -0.27     0.11  -0.11   0.00
                     73                     74                     75
                      A                      A                      A
 Frequencies --    803.5446               820.1158               820.2017
 Red. masses --     10.2934                 4.1790                 4.1907
 Frc consts  --      3.9159                 1.6560                 1.6610
 IR Inten    --      0.0000                 0.0000                 0.0000
  Atom  AN      X      Y      Z        X      Y      Z        X      Y      Z
     1   6    -0.00   0.00   0.15    -0.00   0.00   0.03     0.00  -0.00  -0.12
     2   6    -0.00   0.00   0.21    -0.00   0.00   0.01     0.00  -0.00  -0.16
     3   6    -0.00   0.00   0.06    -0.00   0.00   0.06     0.00  -0.00  -0.03
     4   6    -0.00  -0.00   0.06    -0.00  -0.00   0.05     0.00   0.00   0.04
     5   6    -0.00   0.00   0.15    -0.00   0.00   0.12     0.00  -0.00  -0.03
     6   6     0.00   0.00   0.21     0.00   0.00   0.14    -0.00  -0.00  -0.07
     7   6    -0.00  -0.00  -0.15    -0.00  -0.00  -0.12     0.00   0.00   0.03
     8   6     0.00  -0.00  -0.21     0.00  -0.00  -0.16    -0.00   0.00   0.01
     9   6    -0.00   0.00  -0.06    -0.00   0.00  -0.03    -0.00   0.00   0.06
    10   6    -0.00  -0.00  -0.06    -0.00   0.00   0.04    -0.00   0.00   0.06
    11   6     0.00  -0.00  -0.15     0.00  -0.00  -0.04    -0.00   0.00   0.12
    12   6     0.00  -0.00  -0.21     0.00  -0.00  -0.07    -0.00   0.00   0.14
    13   7     0.00   0.00  -0.00     0.00  -0.00  -0.03    -0.00  -0.00  -0.03
    14   7    -0.00  -0.00  -0.00    -0.00   0.00   0.04    -0.00   0.00   0.04
    15   7    -0.00   0.00  -0.00    -0.00   0.00  -0.01     0.00  -0.00   0.05
    16   7    -0.00  -0.00   0.00    -0.00   0.00   0.05     0.00   0.00  -0.01
    17   7     0.00  -0.00   0.00     0.00  -0.00   0.01    -0.00  -0.00  -0.04
    18   7    -0.00   0.00   0.00     0.00  -0.00  -0.04    -0.00   0.00   0.01
    19   6     0.00  -0.00   0.21     0.00  -0.00   0.13     0.00  -0.00   0.09
    20   6     0.00   0.00   0.06    -0.00  -0.00  -0.01     0.00  -0.00   0.07
    21   6     0.00   0.00   0.15     0.00   0.00   0.09     0.00   0.00   0.09
    22   6    -0.00  -0.00  -0.21    -0.00  -0.00  -0.09    -0.00  -0.00  -0.13
    23   6    -0.00   0.00  -0.06    -0.00  -0.00  -0.07     0.00   0.00   0.01
    24   6    -0.00   0.00  -0.15    -0.00   0.00  -0.09    -0.00   0.00  -0.09
    25   7     0.00  -0.00   0.00     0.00  -0.00   0.04     0.00   0.00  -0.01
    26   7     0.00   0.00   0.00    -0.00   0.00  -0.05     0.00   0.00   0.01
    27   6    -0.00  -0.00   0.21     0.00   0.00  -0.13     0.00   0.00  -0.09
    28   6    -0.00  -0.00   0.06    -0.00   0.00   0.01     0.00   0.00  -0.07
    29   6    -0.00  -0.00   0.15     0.00   0.00  -0.09     0.00   0.00  -0.09
    30   6     0.00   0.00  -0.21    -0.00  -0.00   0.09    -0.00  -0.00   0.13
    31   6     0.00   0.00  -0.06    -0.00  -0.00   0.07     0.00  -0.00  -0.01
    32   6     0.00   0.00  -0.15    -0.00  -0.00   0.09    -0.00   0.00   0.09
    33   7    -0.00   0.00   0.00     0.00  -0.00  -0.01    -0.00  -0.00   0.04
    34   7     0.00  -0.00  -0.00    -0.00   0.00   0.01     0.00   0.00  -0.05
    35   6     0.00   0.00   0.06    -0.00   0.00  -0.05     0.00   0.00  -0.04
    36   6    -0.00  -0.00   0.15     0.00   0.00  -0.12    -0.00  -0.00   0.03
    37   6    -0.00  -0.00   0.21     0.00   0.00  -0.14    -0.00  -0.00   0.07
    38   6     0.00  -0.00   0.15    -0.00   0.00  -0.03     0.00  -0.00   0.12
    39   6     0.00  -0.00   0.21    -0.00   0.00  -0.01     0.00  -0.00   0.16
    40   6     0.00  -0.00   0.06    -0.00   0.00  -0.06     0.00  -0.00   0.03
    41   6     0.00   0.00  -0.06    -0.00   0.00  -0.04    -0.00   0.00  -0.06
    42   6    -0.00   0.00  -0.15     0.00  -0.00   0.04    -0.00   0.00  -0.12
    43   6    -0.00   0.00  -0.21     0.00  -0.00   0.07    -0.00   0.00  -0.14
    44   6     0.00   0.00  -0.15    -0.00  -0.00   0.12     0.00   0.00  -0.03
    45   6    -0.00   0.00  -0.21     0.00  -0.00   0.16    -0.00   0.00  -0.01
    46   6     0.00   0.00  -0.06    -0.00  -0.00   0.03     0.00   0.00  -0.06
    47   7     0.00   0.00  -0.00    -0.00   0.00  -0.04    -0.00   0.00  -0.04
    48   7    -0.00   0.00  -0.00     0.00  -0.00   0.03    -0.00  -0.00   0.03
    49   1    -0.00   0.00  -0.11     0.00   0.00   0.18    -0.00  -0.00  -0.29
    50   1     0.00  -0.00   0.11     0.00  -0.00   0.30    -0.00  -0.00  -0.17
    51   1     0.00  -0.00   0.11     0.00  -0.00   0.00    -0.00  -0.00  -0.34
    52   1     0.00   0.00  -0.11     0.00  -0.00  -0.16    -0.00  -0.00  -0.30
    53   1    -0.00   0.00   0.11     0.00  -0.00  -0.30     0.00  -0.00  -0.17
    54   1     0.00  -0.00  -0.11     0.00  -0.00  -0.35     0.00  -0.00  -0.01
    55   1    -0.00  -0.00   0.11     0.00   0.00  -0.30    -0.00  -0.00   0.17
    56   1     0.00   0.00  -0.11     0.00   0.00  -0.18    -0.00  -0.00   0.29
    57   1     0.00  -0.00   0.11    -0.00  -0.00  -0.00    -0.00  -0.00   0.34
    58   1     0.00   0.00  -0.11    -0.00  -0.00   0.16    -0.00  -0.00   0.30
    59   1     0.00  -0.00   0.11     0.00  -0.00   0.30     0.00  -0.00   0.17
    60   1    -0.00   0.00  -0.11     0.00  -0.00   0.35     0.00  -0.00   0.01
                     76                     77                     78
                      A                      A                      A
 Frequencies --    837.3987               837.4123               845.6192
 Red. masses --      4.7434                 4.7324                 4.8191
 Frc consts  --      1.9598                 1.9553                 2.0303
 IR Inten    --      0.0002                 0.0005                 0.0000
  Atom  AN      X      Y      Z        X      Y      Z        X      Y      Z
     1   6    -0.00   0.00   0.14     0.00   0.00  -0.04     0.02  -0.04  -0.00
     2   6    -0.00   0.00   0.15    -0.00  -0.00  -0.04     0.00  -0.03  -0.00
     3   6     0.00   0.00   0.05    -0.00   0.00   0.05    -0.07   0.11  -0.00
     4   6    -0.00  -0.00  -0.06    -0.00  -0.00   0.01    -0.07  -0.11   0.00
     5   6    -0.00  -0.00  -0.04    -0.00   0.00   0.14     0.02   0.04   0.00
     6   6    -0.00  -0.00  -0.04     0.00   0.00   0.15     0.03   0.02   0.00
     7   6     0.00   0.00   0.07    -0.00  -0.00  -0.13     0.00  -0.05  -0.00
     8   6    -0.00   0.00   0.08    -0.00  -0.00  -0.14     0.01  -0.03  -0.00
     9   6     0.00  -0.00  -0.03    -0.00   0.00  -0.06    -0.00   0.13  -0.00
    10   6    -0.00   0.00  -0.03    -0.00   0.00   0.06     0.12  -0.06   0.00
    11   6     0.00  -0.00  -0.15     0.00  -0.00  -0.00    -0.04   0.02   0.00
    12   6     0.00  -0.00  -0.16    -0.00   0.00   0.00    -0.03   0.00   0.00
    13   7    -0.00   0.00   0.05     0.00  -0.00  -0.04     0.01  -0.05  -0.00
    14   7     0.00  -0.00  -0.06    -0.00  -0.00   0.04     0.03  -0.11   0.00
    15   7     0.00  -0.00  -0.01     0.00   0.00  -0.07     0.08   0.08  -0.00
    16   7     0.00   0.00   0.07     0.00   0.00   0.03    -0.11   0.03  -0.00
    17   7    -0.00   0.00   0.01     0.00   0.00   0.07     0.03   0.03   0.00
    18   7     0.00  -0.00  -0.06     0.00  -0.00  -0.03    -0.05   0.01   0.00
    19   6    -0.00   0.00  -0.11    -0.00   0.00  -0.11    -0.03   0.01  -0.00
    20   6     0.00   0.00   0.02     0.00   0.00  -0.06     0.13   0.00  -0.00
    21   6    -0.00  -0.00  -0.10    -0.00  -0.00  -0.11    -0.05  -0.00  -0.00
    22   6     0.00   0.00   0.08     0.00   0.00   0.13     0.02   0.03   0.00
    23   6     0.00   0.00   0.07    -0.00  -0.00  -0.00    -0.11  -0.07   0.00
    24   6     0.00  -0.00   0.07     0.00  -0.00   0.13     0.04   0.02   0.00
    25   7    -0.00   0.00  -0.06    -0.00   0.00  -0.03    -0.05   0.01  -0.00
    26   7     0.00  -0.00   0.07    -0.00  -0.00   0.03    -0.11   0.03   0.00
    27   6     0.00   0.00  -0.11     0.00   0.00  -0.11    -0.03   0.01   0.00
    28   6    -0.00   0.00   0.02    -0.00   0.00  -0.06     0.13   0.00   0.00
    29   6     0.00   0.00  -0.10     0.00   0.00  -0.11    -0.05  -0.00   0.00
    30   6    -0.00  -0.00   0.08    -0.00  -0.00   0.13     0.02   0.03  -0.00
    31   6     0.00   0.00   0.07     0.00   0.00  -0.00    -0.11  -0.07  -0.00
    32   6    -0.00  -0.00   0.07    -0.00  -0.00   0.13     0.04   0.02  -0.00
    33   7     0.00  -0.00   0.01    -0.00  -0.00   0.07     0.03   0.03  -0.00
    34   7    -0.00   0.00  -0.01    -0.00   0.00  -0.07     0.08   0.08   0.00
    35   6     0.00   0.00  -0.06     0.00   0.00   0.01    -0.07  -0.11  -0.00
    36   6    -0.00   0.00  -0.04     0.00  -0.00   0.14     0.02   0.04  -0.00
    37   6     0.00   0.00  -0.04    -0.00  -0.00   0.15     0.03   0.02  -0.00
    38   6     0.00  -0.00   0.14    -0.00   0.00  -0.04     0.02  -0.04   0.00
    39   6     0.00  -0.00   0.15     0.00   0.00  -0.04     0.00  -0.03   0.00
    40   6    -0.00   0.00   0.05     0.00  -0.00   0.05    -0.07   0.11   0.00
    41   6     0.00  -0.00  -0.03     0.00  -0.00   0.06     0.12  -0.06  -0.00
    42   6    -0.00   0.00  -0.15    -0.00   0.00  -0.00    -0.04   0.02  -0.00
    43   6    -0.00   0.00  -0.16    -0.00  -0.00   0.00    -0.03   0.00  -0.00
    44   6    -0.00  -0.00   0.07     0.00   0.00  -0.13     0.00  -0.05   0.00
    45   6     0.00  -0.00   0.08     0.00   0.00  -0.14     0.01  -0.03   0.00
    46   6    -0.00   0.00  -0.03    -0.00   0.00  -0.06    -0.00   0.13   0.00
    47   7     0.00   0.00  -0.06     0.00  -0.00   0.04     0.03  -0.11  -0.00
    48   7     0.00  -0.00   0.05    -0.00   0.00  -0.04     0.01  -0.05   0.00
    49   1    -0.00  -0.00  -0.21     0.00   0.00   0.26    -0.23   0.04   0.00
    50   1    -0.00   0.00  -0.31     0.00   0.00   0.13     0.18   0.16  -0.00
    51   1     0.00   0.00   0.27     0.00  -0.00   0.20     0.05  -0.23   0.00
    52   1    -0.00   0.00   0.33     0.00   0.00   0.05     0.15   0.18  -0.00
    53   1     0.00   0.00   0.04     0.00  -0.00  -0.33    -0.22   0.07  -0.00
    54   1     0.00   0.00  -0.12     0.00  -0.00  -0.31     0.08  -0.22   0.00
    55   1     0.00   0.00  -0.31    -0.00  -0.00   0.13     0.18   0.16   0.00
    56   1     0.00   0.00  -0.21    -0.00  -0.00   0.26    -0.23   0.04  -0.00
    57   1    -0.00  -0.00   0.27    -0.00  -0.00   0.20     0.05  -0.23  -0.00
    58   1    -0.00  -0.00   0.33    -0.00  -0.00   0.05     0.15   0.18   0.00
    59   1    -0.00  -0.00   0.04    -0.00   0.00  -0.33    -0.22   0.07   0.00
    60   1    -0.00  -0.00  -0.12    -0.00   0.00  -0.31     0.08  -0.22  -0.00
                     79                     80                     81
                      A                      A                      A
 Frequencies --    845.9387               850.6306               850.7160
 Red. masses --     11.2744                 5.6134                 5.6145
 Frc consts  --      4.7536                 2.3931                 2.3940
 IR Inten    --      0.0000                 0.0000                 0.0000
  Atom  AN      X      Y      Z        X      Y      Z        X      Y      Z
     1   6     0.00  -0.00   0.17     0.03  -0.06   0.00    -0.01   0.02  -0.00
     2   6    -0.00  -0.00   0.19     0.05  -0.03   0.00     0.02   0.01   0.00
     3   6    -0.00   0.00   0.04    -0.08   0.15  -0.00     0.04  -0.07   0.00
     4   6    -0.00  -0.00  -0.04    -0.01  -0.02  -0.00     0.10   0.16  -0.00
     5   6     0.00   0.00  -0.17     0.01   0.00   0.00    -0.04  -0.06   0.00
     6   6     0.00   0.00  -0.19    -0.02   0.05  -0.00    -0.00  -0.04   0.00
     7   6     0.00  -0.00   0.18     0.00  -0.02   0.00    -0.01   0.06  -0.00
     8   6     0.00  -0.00   0.19     0.03   0.01  -0.00     0.03   0.05  -0.00
     9   6    -0.00   0.00   0.04    -0.01   0.06  -0.00     0.01  -0.18   0.00
    10   6     0.00  -0.00  -0.04     0.17  -0.08   0.00    -0.03   0.02  -0.00
    11   6    -0.00   0.00  -0.17    -0.06   0.03  -0.00     0.01  -0.00   0.00
    12   6    -0.00  -0.00  -0.19    -0.02   0.03  -0.00     0.01  -0.05   0.00
    13   7     0.00  -0.00   0.10    -0.01  -0.08   0.00    -0.05   0.07  -0.00
    14   7     0.00  -0.00  -0.09     0.08  -0.09   0.00     0.01   0.13  -0.00
    15   7     0.00   0.00   0.09    -0.08   0.01   0.00    -0.09  -0.12   0.00
    16   7    -0.00   0.00   0.09    -0.15   0.05  -0.00    -0.05  -0.06  -0.00
    17   7     0.00   0.00  -0.10     0.01  -0.05   0.00    -0.08  -0.06   0.00
    18   7    -0.00   0.00  -0.10    -0.10   0.02  -0.00    -0.01   0.05  -0.00
    19   6    -0.00   0.00   0.19     0.02  -0.00  -0.00     0.05   0.04  -0.00
    20   6     0.00   0.00   0.04    -0.15   0.01   0.00    -0.11   0.00   0.00
    21   6    -0.00   0.00   0.18     0.05  -0.00  -0.00     0.04  -0.01  -0.00
    22   6     0.00   0.00  -0.19    -0.06   0.01   0.00    -0.01  -0.01   0.00
    23   6    -0.00  -0.00  -0.04     0.11   0.07  -0.00     0.12   0.08  -0.00
    24   6     0.00   0.00  -0.17    -0.04  -0.03   0.00    -0.04  -0.03   0.00
    25   7    -0.00   0.00   0.10     0.10  -0.02  -0.00     0.01  -0.05  -0.00
    26   7    -0.00   0.00  -0.09     0.15  -0.05  -0.00     0.05   0.06  -0.00
    27   6    -0.00   0.00  -0.19    -0.02   0.00  -0.00    -0.05  -0.04  -0.00
    28   6     0.00   0.00  -0.04     0.15  -0.01   0.00     0.11  -0.00   0.00
    29   6    -0.00   0.00  -0.18    -0.05   0.00  -0.00    -0.04   0.01  -0.00
    30   6     0.00   0.00   0.19     0.06  -0.01   0.00     0.01   0.01   0.00
    31   6    -0.00  -0.00   0.04    -0.11  -0.07  -0.00    -0.12  -0.08  -0.00
    32   6     0.00   0.00   0.17     0.04   0.03   0.00     0.04   0.03   0.00
    33   7     0.00   0.00   0.10    -0.01   0.05   0.00     0.08   0.06   0.00
    34   7     0.00   0.00  -0.09     0.08  -0.01   0.00     0.09   0.12   0.00
    35   6    -0.00  -0.00   0.04     0.01   0.02   0.00    -0.10  -0.16  -0.00
    36   6     0.00   0.00   0.17    -0.01  -0.00  -0.00     0.04   0.06   0.00
    37   6     0.00   0.00   0.19     0.02  -0.05  -0.00     0.00   0.04   0.00
    38   6     0.00  -0.00  -0.17    -0.03   0.06   0.00     0.01  -0.02  -0.00
    39   6    -0.00  -0.00  -0.19    -0.05   0.03   0.00    -0.02  -0.01   0.00
    40   6    -0.00   0.00  -0.04     0.08  -0.15  -0.00    -0.04   0.07   0.00
    41   6     0.00  -0.00   0.04    -0.17   0.08   0.00     0.03  -0.02   0.00
    42   6    -0.00   0.00   0.17     0.06  -0.03  -0.00    -0.01   0.00  -0.00
    43   6    -0.00  -0.00   0.19     0.02  -0.03  -0.00    -0.01   0.05   0.00
    44   6     0.00  -0.00  -0.18    -0.00   0.02  -0.00     0.01  -0.06  -0.00
    45   6     0.00  -0.00  -0.19    -0.03  -0.01  -0.00    -0.03  -0.05  -0.00
    46   6    -0.00   0.00  -0.04     0.01  -0.06  -0.00    -0.01   0.18   0.00
    47   7     0.00  -0.00   0.09    -0.08   0.09   0.00    -0.01  -0.13  -0.00
    48   7     0.00  -0.00  -0.10     0.01   0.08   0.00     0.05  -0.07  -0.00
    49   1    -0.00   0.00  -0.08     0.23  -0.04  -0.00     0.21  -0.01  -0.00
    50   1     0.00   0.00   0.09    -0.20  -0.14   0.00    -0.15  -0.14   0.00
    51   1     0.00  -0.00  -0.08     0.03  -0.05   0.00    -0.04   0.31  -0.00
    52   1     0.00   0.00   0.09     0.02   0.07   0.00    -0.19  -0.24   0.00
    53   1    -0.00   0.00   0.08    -0.28   0.10  -0.00     0.09  -0.06  -0.00
    54   1     0.00  -0.00  -0.09     0.13  -0.28  -0.00    -0.02   0.10  -0.00
    55   1     0.00   0.00  -0.09     0.20   0.14   0.00     0.15   0.14   0.00
    56   1    -0.00   0.00   0.08    -0.23   0.04  -0.00    -0.21   0.01  -0.00
    57   1     0.00  -0.00   0.08    -0.03   0.05   0.00     0.04  -0.31  -0.00
    58   1     0.00   0.00  -0.09    -0.02  -0.07  -0.00     0.19   0.24   0.00
    59   1    -0.00   0.00  -0.08     0.28  -0.10  -0.00    -0.09   0.06  -0.00
    60   1     0.00  -0.00   0.09    -0.13   0.28   0.00     0.02  -0.10  -0.00
                     82                     83                     84
                      A                      A                      A
 Frequencies --    856.7578               856.8903               863.4970
 Red. masses --      8.8692                 8.8725                 1.6679
 Frc consts  --      3.8357                 3.8384                 0.7327
 IR Inten    --      0.2337                 0.2268                 0.0000
  Atom  AN      X      Y      Z        X      Y      Z        X      Y      Z
     1   6    -0.02  -0.11  -0.00    -0.03  -0.04   0.00    -0.00  -0.00   0.05
     2   6     0.08  -0.01   0.00    -0.01  -0.00  -0.00     0.00  -0.00  -0.01
     3   6    -0.02   0.21  -0.00    -0.03   0.08  -0.00     0.00   0.00  -0.05
     4   6     0.13   0.12   0.00    -0.12  -0.08  -0.00     0.00   0.00   0.05
     5   6    -0.10  -0.02   0.00     0.06   0.04   0.00    -0.00  -0.00  -0.05
     6   6     0.01  -0.03   0.00    -0.03   0.07  -0.00     0.00  -0.00   0.01
     7   6    -0.01   0.04  -0.00     0.08  -0.08   0.00    -0.00  -0.00  -0.05
     8   6     0.05   0.04  -0.00    -0.04  -0.03  -0.00    -0.00  -0.00   0.01
     9   6     0.05  -0.07   0.00    -0.08   0.20  -0.00     0.00   0.00   0.05
    10   6     0.22  -0.02   0.00    -0.03   0.02  -0.00     0.00  -0.00  -0.05
    11   6    -0.11  -0.02  -0.00     0.02   0.02   0.00    -0.00   0.00   0.05
    12   6    -0.01   0.08   0.00    -0.00   0.03   0.00     0.00   0.00  -0.01
    13   7    -0.15  -0.08   0.00     0.10  -0.06   0.00    -0.00  -0.00  -0.00
    14   7     0.12  -0.02   0.00    -0.01  -0.13   0.00     0.00  -0.00   0.00
    15   7    -0.09  -0.11   0.00    -0.09   0.07   0.00     0.00  -0.00   0.00
    16   7    -0.05   0.11  -0.00     0.12   0.04   0.00     0.00   0.00   0.00
    17   7    -0.08  -0.06   0.00     0.13  -0.14  -0.00     0.00  -0.00  -0.00
    18   7    -0.09  -0.13   0.00     0.05  -0.12   0.00    -0.00  -0.00  -0.00
    19   6     0.03   0.05   0.00     0.04   0.05   0.00    -0.00   0.00  -0.01
    20   6    -0.03   0.03   0.00    -0.21   0.08   0.00    -0.00  -0.00  -0.05
    21   6     0.02   0.01  -0.00     0.09  -0.08  -0.00     0.00   0.00   0.05
    22   6    -0.01   0.00   0.00    -0.08   0.03   0.00     0.00  -0.00  -0.01
    23   6     0.10   0.10   0.00     0.10   0.15  -0.00    -0.00  -0.00  -0.05
    24   6    -0.01  -0.08  -0.00    -0.04  -0.08  -0.00     0.00   0.00   0.05
    25   7    -0.09  -0.13   0.00     0.05  -0.12  -0.00     0.00   0.00   0.00
    26   7    -0.05   0.11   0.00     0.12   0.04  -0.00     0.00  -0.00  -0.00
    27   6     0.03   0.05   0.00     0.04   0.05   0.00     0.00   0.00   0.01
    28   6    -0.03   0.03   0.00    -0.21   0.08  -0.00    -0.00   0.00   0.05
    29   6     0.02   0.01  -0.00     0.09  -0.08   0.00     0.00   0.00  -0.05
    30   6    -0.01   0.00   0.00    -0.08   0.03  -0.00    -0.00  -0.00   0.01
    31   6     0.10   0.10   0.00     0.10   0.15   0.00    -0.00   0.00   0.05
    32   6    -0.01  -0.08  -0.00    -0.04  -0.08  -0.00     0.00  -0.00  -0.05
    33   7    -0.08  -0.06  -0.00     0.13  -0.14  -0.00     0.00  -0.00   0.00
    34   7    -0.09  -0.11  -0.00    -0.09   0.07  -0.00    -0.00   0.00  -0.00
    35   6     0.13   0.12   0.00    -0.12  -0.08  -0.00    -0.00   0.00  -0.05
    36   6    -0.10  -0.02  -0.00     0.06   0.04  -0.00     0.00  -0.00   0.05
    37   6     0.01  -0.03   0.00    -0.03   0.07   0.00    -0.00   0.00  -0.01
    38   6    -0.02  -0.11  -0.00    -0.03  -0.04  -0.00    -0.00   0.00  -0.05
    39   6     0.08  -0.01   0.00    -0.01  -0.00   0.00    -0.00  -0.00   0.01
    40   6    -0.02   0.21   0.00    -0.03   0.08   0.00     0.00  -0.00   0.05
    41   6     0.22  -0.02  -0.00    -0.03   0.02   0.00    -0.00  -0.00   0.05
    42   6    -0.11  -0.02  -0.00     0.02   0.02  -0.00     0.00   0.00  -0.05
    43   6    -0.01   0.08   0.00    -0.00   0.03   0.00     0.00  -0.00   0.01
    44   6    -0.01   0.04  -0.00     0.08  -0.08  -0.00     0.00  -0.00   0.05
    45   6     0.05   0.04   0.00    -0.04  -0.03   0.00    -0.00  -0.00  -0.01
    46   6     0.05  -0.07  -0.00    -0.08   0.20   0.00    -0.00   0.00  -0.05
    47   7     0.12  -0.02  -0.00    -0.01  -0.13  -0.00    -0.00  -0.00  -0.00
    48   7    -0.15  -0.08   0.00     0.10  -0.06  -0.00     0.00   0.00   0.00
    49   1     0.12   0.09  -0.00     0.14   0.11  -0.00     0.00   0.00   0.28
    50   1    -0.03   0.01  -0.00    -0.23   0.02   0.00     0.00  -0.00   0.28
    51   1     0.10   0.15  -0.00    -0.09  -0.12   0.00    -0.00  -0.00  -0.27
    52   1     0.02  -0.08  -0.00    -0.02   0.22   0.00     0.00  -0.00  -0.27
    53   1    -0.09   0.20  -0.00    -0.04   0.08   0.00    -0.00   0.00   0.29
    54   1     0.21  -0.09  -0.00    -0.03   0.02   0.00    -0.00   0.00   0.29
    55   1    -0.03   0.01  -0.00    -0.23   0.02   0.00     0.00   0.00  -0.28
    56   1     0.12   0.09  -0.00     0.14   0.11   0.00     0.00   0.00  -0.28
    57   1     0.10   0.15  -0.00    -0.09  -0.12  -0.00    -0.00  -0.00   0.27
    58   1     0.02  -0.08  -0.00    -0.02   0.22  -0.00    -0.00  -0.00   0.27
    59   1    -0.09   0.20  -0.00    -0.04   0.08  -0.00    -0.00   0.00  -0.29
    60   1     0.21  -0.09  -0.00    -0.03   0.02  -0.00    -0.00   0.00  -0.29
                     85                     86                     87
                      A                      A                      A
 Frequencies --    865.6069               865.9002               866.5809
 Red. masses --      8.6219                 2.3031                 2.1109
 Frc consts  --      3.8062                 1.0174                 0.9340
 IR Inten    --      0.0000               128.4656                 1.5267
  Atom  AN      X      Y      Z        X      Y      Z        X      Y      Z
     1   6    -0.04  -0.09  -0.00     0.00   0.00  -0.08     0.00  -0.00  -0.07
     2   6     0.06  -0.00   0.00    -0.00   0.00   0.04     0.00   0.00   0.03
     3   6     0.01   0.15   0.00    -0.00  -0.00   0.06    -0.00   0.00   0.06
     4   6     0.14   0.07   0.00    -0.00  -0.00   0.04     0.00   0.00  -0.03
     5   6    -0.10  -0.01  -0.00     0.00  -0.00  -0.07    -0.00  -0.00   0.00
     6   6     0.03  -0.05   0.00    -0.00   0.00   0.03     0.00  -0.00  -0.06
     7   6    -0.08   0.06  -0.00     0.00  -0.00  -0.06    -0.00   0.00   0.07
     8   6     0.05   0.03   0.00    -0.00  -0.00   0.04     0.00   0.00   0.03
     9   6     0.09  -0.12   0.00    -0.00   0.00   0.04     0.00  -0.00  -0.02
    10   6     0.15   0.02   0.00    -0.00  -0.00   0.06     0.00   0.00   0.06
    11   6    -0.09  -0.04  -0.00     0.00   0.00  -0.08    -0.00  -0.00  -0.08
    12   6    -0.00   0.06   0.00     0.00  -0.00   0.04    -0.00   0.00   0.02
    13   7    -0.16  -0.04   0.00     0.00   0.00   0.04    -0.00  -0.00   0.02
    14   7     0.09   0.02  -0.00    -0.00  -0.00  -0.03     0.00   0.00  -0.02
    15   7     0.06  -0.06  -0.00    -0.00   0.00  -0.02     0.00  -0.00   0.03
    16   7     0.02   0.09  -0.00     0.00  -0.00  -0.03     0.00   0.00  -0.01
    17   7    -0.12   0.11   0.00     0.00  -0.00   0.03    -0.00   0.00  -0.04
    18   7    -0.04  -0.16   0.00     0.00   0.00   0.04    -0.00  -0.00   0.01
    19   6    -0.03  -0.05   0.00     0.00   0.00   0.04    -0.00  -0.00   0.02
    20   6     0.13  -0.09   0.00    -0.00   0.00   0.04     0.00  -0.00  -0.04
    21   6    -0.06   0.08  -0.00     0.00  -0.00  -0.06     0.00   0.00   0.08
    22   6     0.05  -0.03   0.00    -0.00   0.00   0.03     0.00  -0.00  -0.06
    23   6    -0.06  -0.14   0.00     0.00   0.00   0.04    -0.00  -0.00  -0.05
    24   6     0.01   0.10  -0.00    -0.00  -0.00  -0.07     0.00   0.00   0.03
    25   7     0.04   0.16   0.00     0.00  -0.00   0.04     0.00   0.00   0.01
    26   7    -0.02  -0.09  -0.00     0.00   0.00  -0.03    -0.00  -0.00  -0.01
    27   6     0.03   0.05   0.00    -0.00  -0.00   0.04     0.00   0.00   0.02
    28   6    -0.13   0.09   0.00     0.00  -0.00   0.04    -0.00   0.00  -0.04
    29   6     0.06  -0.08  -0.00    -0.00   0.00  -0.06    -0.00  -0.00   0.08
    30   6    -0.05   0.03   0.00     0.00  -0.00   0.03     0.00   0.00  -0.06
    31   6     0.06   0.14   0.00    -0.00  -0.00   0.04     0.00   0.00  -0.05
    32   6    -0.01  -0.10  -0.00     0.00   0.00  -0.07    -0.00  -0.00   0.03
    33   7     0.12  -0.11   0.00    -0.00   0.00   0.03     0.00  -0.00  -0.04
    34   7    -0.06   0.06  -0.00     0.00  -0.00  -0.02    -0.00   0.00   0.03
    35   6    -0.14  -0.07   0.00     0.00   0.00   0.04    -0.00  -0.00  -0.03
    36   6     0.10   0.01  -0.00    -0.00   0.00  -0.07     0.00   0.00   0.00
    37   6    -0.03   0.05   0.00     0.00  -0.00   0.03    -0.00   0.00  -0.06
    38   6     0.04   0.09  -0.00    -0.00  -0.00  -0.08     0.00   0.00  -0.07
    39   6    -0.06   0.00   0.00     0.00  -0.00   0.04    -0.00  -0.00   0.03
    40   6    -0.01  -0.15   0.00     0.00   0.00   0.06     0.00  -0.00   0.06
    41   6    -0.15  -0.02   0.00     0.00   0.00   0.06    -0.00  -0.00   0.06
    42   6     0.09   0.04  -0.00    -0.00  -0.00  -0.08     0.00   0.00  -0.08
    43   6     0.00  -0.06   0.00     0.00   0.00   0.04     0.00  -0.00   0.02
    44   6     0.08  -0.06  -0.00    -0.00   0.00  -0.06     0.00  -0.00   0.07
    45   6    -0.05  -0.03   0.00     0.00   0.00   0.04    -0.00  -0.00   0.03
    46   6    -0.09   0.12   0.00     0.00  -0.00   0.04    -0.00   0.00  -0.02
    47   7    -0.09  -0.02  -0.00     0.00   0.00  -0.03    -0.00  -0.00  -0.02
    48   7     0.16   0.04   0.00    -0.00  -0.00   0.04     0.00   0.00   0.02
    49   1    -0.03  -0.17  -0.00    -0.00   0.00  -0.25     0.00  -0.00   0.26
    50   1     0.11  -0.12  -0.00    -0.00   0.00  -0.25     0.00  -0.00   0.27
    51   1     0.17   0.04  -0.00    -0.00  -0.00  -0.24     0.00   0.00   0.16
    52   1     0.13  -0.11  -0.00    -0.00   0.00  -0.24     0.00  -0.00   0.17
    53   1     0.05   0.16  -0.00     0.00  -0.00  -0.31     0.00  -0.00  -0.35
    54   1     0.16   0.06  -0.00    -0.00  -0.00  -0.31     0.00  -0.00  -0.35
    55   1    -0.11   0.12  -0.00     0.00  -0.00  -0.25    -0.00   0.00   0.27
    56   1     0.03   0.17  -0.00     0.00  -0.00  -0.25    -0.00  -0.00   0.26
    57   1    -0.17  -0.04  -0.00     0.00   0.00  -0.24    -0.00  -0.00   0.16
    58   1    -0.13   0.11  -0.00     0.00  -0.00  -0.24    -0.00  -0.00   0.17
    59   1    -0.05  -0.16  -0.00     0.00   0.00  -0.31    -0.00   0.00  -0.35
    60   1    -0.16  -0.06  -0.00     0.00   0.00  -0.31    -0.00   0.00  -0.35
                     88                     89                     90
                      A                      A                      A
 Frequencies --    866.7481               867.7843               867.8664
 Red. masses --      2.1049                 2.3922                 2.3850
 Frc consts  --      0.9317                 1.0614                 1.0584
 IR Inten    --      0.1364                 0.0000                 0.0000
  Atom  AN      X      Y      Z        X      Y      Z        X      Y      Z
     1   6     0.00   0.00   0.04    -0.00   0.00   0.10     0.00   0.00  -0.02
     2   6    -0.00   0.00   0.04     0.00  -0.00  -0.04     0.00  -0.00  -0.05
     3   6    -0.00  -0.00  -0.00     0.00  -0.00  -0.07     0.00  -0.00  -0.01
     4   6    -0.00  -0.00   0.06     0.00  -0.00  -0.03    -0.00  -0.00  -0.06
     5   6     0.00  -0.00  -0.09    -0.00   0.00   0.07    -0.00   0.00   0.07
     6   6    -0.00   0.00   0.01     0.00   0.00   0.02    -0.00  -0.00  -0.06
     7   6     0.00  -0.00  -0.06    -0.00   0.00   0.02     0.00   0.00   0.10
     8   6    -0.00  -0.00   0.04     0.00  -0.00  -0.06     0.00  -0.00  -0.02
     9   6    -0.00   0.00   0.07     0.00  -0.00  -0.03     0.00  -0.00  -0.06
    10   6    -0.00  -0.00  -0.01     0.00  -0.00  -0.07    -0.00   0.00  -0.00
    11   6     0.00   0.00  -0.02    -0.00   0.00   0.09    -0.00   0.00   0.04
    12   6     0.00  -0.00  -0.05     0.00  -0.00  -0.05    -0.00   0.00   0.04
    13   7     0.00   0.00   0.03     0.00  -0.00  -0.04     0.00  -0.00  -0.03
    14   7    -0.00  -0.00  -0.02    -0.00   0.00   0.03    -0.00   0.00   0.02
    15   7    -0.00   0.00  -0.01     0.00   0.00  -0.00     0.00   0.00   0.04
    16   7    -0.00  -0.00   0.03    -0.00  -0.00   0.04     0.00  -0.00  -0.02
    17   7     0.00  -0.00   0.01    -0.00   0.00   0.00    -0.00  -0.00  -0.05
    18   7     0.00   0.00  -0.03     0.00   0.00  -0.05    -0.00   0.00   0.02
    19   6     0.00   0.00  -0.05     0.00  -0.00   0.06    -0.00   0.00  -0.01
    20   6    -0.00   0.00  -0.06     0.00  -0.00   0.04    -0.00  -0.00  -0.05
    21   6     0.00  -0.00   0.04    -0.00   0.00  -0.03     0.00   0.00   0.09
    22   6    -0.00   0.00   0.01     0.00  -0.00  -0.01    -0.00  -0.00  -0.06
    23   6     0.00   0.00  -0.05    -0.00  -0.00   0.04    -0.00  -0.00  -0.06
    24   6     0.00  -0.00   0.08    -0.00   0.00  -0.08     0.00  -0.00   0.06
    25   7    -0.00  -0.00  -0.03     0.00   0.00   0.05    -0.00   0.00  -0.02
    26   7     0.00   0.00   0.03    -0.00   0.00  -0.04     0.00  -0.00   0.02
    27   6    -0.00  -0.00  -0.05     0.00  -0.00  -0.06    -0.00  -0.00   0.01
    28   6     0.00  -0.00  -0.06     0.00  -0.00  -0.04    -0.00  -0.00   0.05
    29   6    -0.00   0.00   0.04    -0.00   0.00   0.03     0.00   0.00  -0.09
    30   6     0.00  -0.00   0.01     0.00  -0.00   0.01    -0.00  -0.00   0.06
    31   6    -0.00  -0.00  -0.05     0.00  -0.00  -0.04    -0.00  -0.00   0.06
    32   6    -0.00   0.00   0.08    -0.00   0.00   0.08     0.00   0.00  -0.06
    33   7    -0.00   0.00   0.01    -0.00   0.00  -0.00    -0.00  -0.00   0.05
    34   7     0.00  -0.00  -0.01     0.00  -0.00   0.00     0.00   0.00  -0.04
    35   6     0.00   0.00   0.06     0.00  -0.00   0.03    -0.00  -0.00   0.06
    36   6    -0.00   0.00  -0.09    -0.00   0.00  -0.07    -0.00   0.00  -0.07
    37   6     0.00  -0.00   0.01     0.00   0.00  -0.02    -0.00  -0.00   0.06
    38   6    -0.00  -0.00   0.04    -0.00   0.00  -0.10     0.00  -0.00   0.02
    39   6     0.00  -0.00   0.04     0.00  -0.00   0.04     0.00  -0.00   0.05
    40   6     0.00   0.00  -0.00     0.00  -0.00   0.07     0.00  -0.00   0.01
    41   6     0.00   0.00  -0.01     0.00  -0.00   0.07    -0.00  -0.00   0.00
    42   6    -0.00  -0.00  -0.02    -0.00   0.00  -0.09    -0.00   0.00  -0.04
    43   6    -0.00   0.00  -0.05     0.00  -0.00   0.05    -0.00   0.00  -0.04
    44   6    -0.00   0.00  -0.06    -0.00   0.00  -0.02     0.00   0.00  -0.10
    45   6     0.00   0.00   0.04     0.00  -0.00   0.06     0.00  -0.00   0.02
    46   6     0.00  -0.00   0.07     0.00  -0.00   0.03     0.00  -0.00   0.06
    47   7     0.00   0.00  -0.02    -0.00   0.00  -0.03    -0.00   0.00  -0.02
    48   7    -0.00  -0.00   0.03    -0.00  -0.00   0.04     0.00  -0.00   0.03
    49   1     0.00   0.00   0.30    -0.00  -0.00  -0.23     0.00   0.00   0.31
    50   1     0.00   0.00   0.29    -0.00   0.00  -0.23     0.00  -0.00   0.31
    51   1    -0.00  -0.00  -0.37     0.00   0.00   0.17     0.00   0.00   0.35
    52   1    -0.00   0.00  -0.37     0.00   0.00   0.17    -0.00   0.00   0.35
    53   1    -0.00  -0.00   0.05    -0.00   0.00   0.37     0.00  -0.00   0.03
    54   1    -0.00  -0.00   0.04    -0.00   0.00   0.37    -0.00   0.00   0.03
    55   1    -0.00  -0.00   0.29    -0.00  -0.00   0.23     0.00   0.00  -0.31
    56   1    -0.00  -0.00   0.30    -0.00  -0.00   0.23     0.00   0.00  -0.31
    57   1     0.00   0.00  -0.37     0.00   0.00  -0.17     0.00   0.00  -0.35
    58   1     0.00   0.00  -0.37     0.00   0.00  -0.17     0.00   0.00  -0.35
    59   1     0.00   0.00   0.05    -0.00   0.00  -0.37    -0.00   0.00  -0.03
    60   1     0.00   0.00   0.04    -0.00   0.00  -0.37    -0.00   0.00  -0.03
                     91                     92                     93
                      A                      A                      A
 Frequencies --   1006.2954              1006.3812              1006.8888
 Red. masses --      1.2791                 1.2816                 1.2800
 Frc consts  --      0.7631                 0.7648                 0.7646
 IR Inten    --      0.0000                 0.0000                 0.0001
  Atom  AN      X      Y      Z        X      Y      Z        X      Y      Z
     1   6     0.00   0.00  -0.01     0.00   0.00  -0.01    -0.00   0.00  -0.00
     2   6    -0.00  -0.00   0.00    -0.00  -0.00   0.00    -0.00   0.00   0.00
     3   6     0.00  -0.00  -0.07     0.00  -0.00  -0.07     0.00  -0.00  -0.01
     4   6     0.00   0.00   0.03     0.00   0.00   0.02     0.00   0.00   0.05
     5   6    -0.00   0.00   0.00     0.00  -0.00   0.00    -0.00  -0.00   0.00
     6   6     0.00   0.00  -0.00     0.00  -0.00  -0.00     0.00  -0.00  -0.00
     7   6    -0.00   0.00  -0.00    -0.00   0.00  -0.00    -0.00   0.00  -0.00
     8   6     0.00   0.00   0.00     0.00  -0.00   0.00     0.00  -0.00   0.00
     9   6    -0.00  -0.00  -0.03    -0.00  -0.00  -0.02    -0.00  -0.00  -0.05
    10   6    -0.00   0.00   0.07    -0.00   0.00   0.07     0.00  -0.00   0.01
    11   6    -0.00   0.00   0.01     0.00  -0.00   0.01    -0.00   0.00  -0.00
    12   6    -0.00  -0.00  -0.00    -0.00  -0.00  -0.00    -0.00  -0.00  -0.00
    13   7     0.00  -0.00  -0.00    -0.00   0.00  -0.00    -0.00  -0.00  -0.00
    14   7     0.00  -0.00  -0.00     0.00   0.00  -0.00    -0.00  -0.00  -0.00
    15   7    -0.00   0.00   0.00     0.00   0.00  -0.00     0.00   0.00   0.00
    16   7     0.00   0.00   0.00    -0.00   0.00   0.00     0.00   0.00  -0.00
    17   7    -0.00   0.00   0.00    -0.00   0.00  -0.00    -0.00  -0.00   0.00
    18   7     0.00   0.00   0.00    -0.00   0.00   0.00     0.00   0.00  -0.00
    19   6     0.00  -0.00   0.00    -0.00   0.00  -0.00    -0.00   0.00   0.00
    20   6    -0.00  -0.00  -0.03     0.00   0.00   0.02    -0.00  -0.00  -0.06
    21   6    -0.00   0.00  -0.00    -0.00  -0.00   0.00    -0.00   0.00  -0.00
    22   6    -0.00  -0.00  -0.00    -0.00  -0.00   0.00    -0.00   0.00  -0.00
    23   6     0.00   0.00   0.03    -0.00   0.00  -0.02     0.00   0.00   0.06
    24   6     0.00   0.00   0.00    -0.00  -0.00  -0.00    -0.00  -0.00   0.01
    25   7    -0.00   0.00  -0.00     0.00  -0.00   0.00    -0.00  -0.00  -0.00
    26   7     0.00   0.00  -0.00     0.00  -0.00   0.00    -0.00  -0.00  -0.00
    27   6     0.00  -0.00  -0.00     0.00   0.00  -0.00     0.00  -0.00   0.00
    28   6    -0.00  -0.00   0.03    -0.00  -0.00   0.02     0.00   0.00  -0.06
    29   6    -0.00  -0.00   0.00     0.00  -0.00   0.00     0.00   0.00  -0.00
    30   6    -0.00  -0.00   0.00     0.00   0.00   0.00     0.00  -0.00  -0.00
    31   6     0.00   0.00  -0.03     0.00   0.00  -0.02    -0.00  -0.00   0.06
    32   6     0.00   0.00  -0.00     0.00   0.00  -0.00     0.00   0.00   0.01
    33   7    -0.00   0.00  -0.00     0.00  -0.00  -0.00     0.00  -0.00   0.00
    34   7     0.00   0.00  -0.00    -0.00  -0.00  -0.00    -0.00  -0.00   0.00
    35   6     0.00   0.00  -0.03    -0.00  -0.00   0.02    -0.00  -0.00   0.05
    36   6     0.00   0.00  -0.00    -0.00  -0.00   0.00     0.00   0.00   0.00
    37   6     0.00   0.00   0.00    -0.00   0.00  -0.00    -0.00   0.00  -0.00
    38   6     0.00   0.00   0.01    -0.00  -0.00  -0.01     0.00  -0.00  -0.00
    39   6    -0.00  -0.00  -0.00     0.00   0.00   0.00     0.00  -0.00   0.00
    40   6     0.00  -0.00   0.07    -0.00   0.00  -0.07    -0.00   0.00  -0.01
    41   6    -0.00   0.00  -0.07     0.00  -0.00   0.07    -0.00  -0.00   0.01
    42   6     0.00   0.00  -0.01    -0.00   0.00   0.01     0.00  -0.00  -0.00
    43   6    -0.00  -0.00   0.00     0.00   0.00  -0.00     0.00   0.00  -0.00
    44   6    -0.00   0.00   0.00     0.00  -0.00  -0.00     0.00  -0.00  -0.00
    45   6     0.00   0.00  -0.00    -0.00  -0.00   0.00    -0.00   0.00   0.00
    46   6    -0.00  -0.00   0.03     0.00   0.00  -0.02     0.00   0.00  -0.05
    47   7     0.00   0.00   0.00    -0.00  -0.00  -0.00     0.00   0.00  -0.00
    48   7     0.00   0.00   0.00    -0.00  -0.00  -0.00     0.00  -0.00  -0.00
    49   1    -0.00  -0.00  -0.20     0.00   0.00   0.14    -0.00  -0.00  -0.37
    50   1     0.00  -0.00   0.20    -0.00   0.00  -0.14     0.00  -0.00   0.37
    51   1    -0.00  -0.00  -0.18    -0.00  -0.00  -0.11    -0.00  -0.00  -0.32
    52   1     0.00   0.00   0.18    -0.00   0.00   0.11     0.00   0.00   0.33
    53   1    -0.00   0.00   0.42    -0.00   0.00   0.46    -0.00  -0.00   0.04
    54   1     0.00  -0.00  -0.42     0.00  -0.00  -0.46     0.00  -0.00  -0.04
    55   1     0.00   0.00  -0.20     0.00   0.00  -0.14    -0.00  -0.00   0.37
    56   1    -0.00  -0.00   0.20    -0.00  -0.00   0.14     0.00   0.00  -0.37
    57   1    -0.00  -0.00   0.18     0.00   0.00  -0.11     0.00   0.00  -0.32
    58   1     0.00   0.00  -0.18    -0.00  -0.00   0.11    -0.00  -0.00   0.33
    59   1    -0.00   0.00  -0.42     0.00  -0.00   0.46     0.00  -0.00   0.04
    60   1     0.00  -0.00   0.42    -0.00   0.00  -0.46    -0.00   0.00  -0.04
                     94                     95                     96
                      A                      A                      A
 Frequencies --   1007.1522              1007.4779              1007.6426
 Red. masses --      1.2852                 1.2859                 1.2886
 Frc consts  --      0.7681                 0.7690                 0.7708
 IR Inten    --      0.0000                 0.0000                 0.0000
  Atom  AN      X      Y      Z        X      Y      Z        X      Y      Z
     1   6     0.00  -0.00   0.00     0.00   0.00   0.00    -0.00   0.00  -0.00
     2   6     0.00   0.00  -0.00     0.00  -0.00   0.00    -0.00  -0.00   0.00
     3   6    -0.00   0.00   0.04    -0.00   0.00  -0.01     0.00  -0.00  -0.03
     4   6     0.00   0.00   0.03    -0.00  -0.00  -0.06    -0.00  -0.00  -0.06
     5   6    -0.00  -0.00   0.00     0.00   0.00  -0.01     0.00   0.00  -0.01
     6   6     0.00  -0.00  -0.00    -0.00  -0.00   0.00    -0.00  -0.00   0.00
     7   6    -0.00   0.00  -0.00     0.00  -0.00   0.01    -0.00   0.00   0.01
     8   6     0.00  -0.00   0.00    -0.00   0.00  -0.00    -0.00   0.00  -0.00
     9   6    -0.00  -0.00  -0.04     0.00   0.00   0.06     0.00   0.00   0.06
    10   6     0.00  -0.00  -0.04    -0.00   0.00   0.01    -0.00   0.00   0.03
    11   6    -0.00   0.00  -0.00     0.00  -0.00   0.00     0.00  -0.00   0.00
    12   6     0.00   0.00   0.00     0.00  -0.00  -0.00    -0.00  -0.00  -0.00
    13   7    -0.00  -0.00   0.00     0.00   0.00   0.00     0.00   0.00   0.00
    14   7    -0.00   0.00   0.00     0.00   0.00   0.00     0.00   0.00   0.00
    15   7     0.00   0.00   0.00     0.00  -0.00  -0.00     0.00  -0.00  -0.00
    16   7     0.00  -0.00   0.00    -0.00  -0.00   0.00     0.00   0.00  -0.00
    17   7     0.00   0.00   0.00     0.00   0.00  -0.00    -0.00   0.00  -0.00
    18   7     0.00  -0.00   0.00    -0.00  -0.00   0.00     0.00   0.00  -0.00
    19   6    -0.00   0.00   0.00     0.00   0.00   0.00    -0.00  -0.00   0.00
    20   6    -0.00  -0.00  -0.06    -0.00  -0.00  -0.04    -0.00  -0.00  -0.05
    21   6    -0.00  -0.00  -0.00    -0.00  -0.00  -0.01    -0.00  -0.00  -0.01
    22   6    -0.00  -0.00  -0.00     0.00   0.00  -0.00     0.00  -0.00  -0.00
    23   6     0.00   0.00   0.06     0.00   0.00   0.05     0.00   0.00   0.05
    24   6     0.00  -0.00   0.01     0.00   0.00   0.00    -0.00   0.00   0.00
    25   7    -0.00  -0.00  -0.00    -0.00   0.00  -0.00    -0.00   0.00  -0.00
    26   7    -0.00  -0.00  -0.00    -0.00  -0.00  -0.00    -0.00  -0.00  -0.00
    27   6    -0.00   0.00  -0.00     0.00   0.00  -0.00     0.00  -0.00   0.00
    28   6    -0.00  -0.00   0.06    -0.00  -0.00   0.04     0.00   0.00  -0.05
    29   6    -0.00  -0.00   0.00     0.00  -0.00   0.01     0.00   0.00  -0.01
    30   6    -0.00   0.00   0.00     0.00   0.00   0.00    -0.00   0.00  -0.00
    31   6     0.00   0.00  -0.06     0.00   0.00  -0.05    -0.00  -0.00   0.05
    32   6    -0.00  -0.00  -0.01     0.00   0.00  -0.00     0.00  -0.00   0.00
    33   7     0.00   0.00  -0.00    -0.00  -0.00   0.00     0.00  -0.00  -0.00
    34   7     0.00   0.00  -0.00     0.00  -0.00   0.00    -0.00   0.00  -0.00
    35   6     0.00   0.00  -0.03    -0.00  -0.00   0.06     0.00   0.00  -0.06
    36   6    -0.00  -0.00  -0.00     0.00   0.00   0.01    -0.00  -0.00  -0.01
    37   6     0.00  -0.00   0.00    -0.00  -0.00  -0.00     0.00   0.00   0.00
    38   6     0.00  -0.00  -0.00     0.00   0.00  -0.00     0.00   0.00  -0.00
    39   6     0.00   0.00   0.00    -0.00  -0.00  -0.00     0.00   0.00   0.00
    40   6    -0.00   0.00  -0.04    -0.00   0.00   0.01    -0.00   0.00  -0.03
    41   6     0.00  -0.00   0.04    -0.00   0.00  -0.01     0.00  -0.00   0.03
    42   6    -0.00  -0.00   0.00     0.00  -0.00  -0.00    -0.00   0.00   0.00
    43   6     0.00   0.00  -0.00    -0.00  -0.00   0.00     0.00   0.00  -0.00
    44   6    -0.00  -0.00   0.00     0.00   0.00  -0.01    -0.00  -0.00   0.01
    45   6     0.00  -0.00  -0.00    -0.00   0.00   0.00     0.00  -0.00  -0.00
    46   6    -0.00  -0.00   0.04     0.00   0.00  -0.06    -0.00  -0.00   0.06
    47   7    -0.00   0.00  -0.00     0.00   0.00  -0.00    -0.00  -0.00   0.00
    48   7    -0.00   0.00  -0.00     0.00   0.00  -0.00    -0.00  -0.00   0.00
    49   1    -0.00  -0.00  -0.35    -0.00  -0.00  -0.28    -0.00  -0.00  -0.29
    50   1     0.00  -0.00   0.36     0.00  -0.00   0.28     0.00  -0.00   0.29
    51   1    -0.00  -0.00  -0.22     0.00   0.00   0.40     0.00   0.00   0.36
    52   1     0.00   0.00   0.22     0.00  -0.00  -0.40     0.00  -0.00  -0.36
    53   1     0.00  -0.00  -0.26    -0.00   0.00   0.04    -0.00   0.00   0.17
    54   1    -0.00   0.00   0.26     0.00  -0.00  -0.03     0.00  -0.00  -0.17
    55   1     0.00   0.00  -0.36     0.00   0.00  -0.28    -0.00  -0.00   0.29
    56   1    -0.00  -0.00   0.35    -0.00  -0.00   0.28     0.00   0.00  -0.29
    57   1    -0.00  -0.00   0.22     0.00   0.00  -0.40    -0.00  -0.00   0.36
    58   1     0.00   0.00  -0.22    -0.00  -0.00   0.40     0.00   0.00  -0.36
    59   1     0.00  -0.00   0.26    -0.00   0.00  -0.04     0.00  -0.00   0.17
    60   1    -0.00   0.00  -0.26     0.00  -0.00   0.03    -0.00   0.00  -0.17
                     97                     98                     99
                      A                      A                      A
 Frequencies --   1034.3345              1034.5832              1040.9965
 Red. masses --      7.0480                 7.0428                 4.0400
 Frc consts  --      4.4426                 4.4415                 2.5795
 IR Inten    --      0.0000                 0.0000                56.9866
  Atom  AN      X      Y      Z        X      Y      Z        X      Y      Z
     1   6    -0.02   0.04  -0.00    -0.02   0.09  -0.00     0.01  -0.05   0.00
     2   6    -0.11  -0.19   0.00    -0.04   0.08  -0.00     0.02   0.15  -0.00
     3   6    -0.04   0.02  -0.00     0.04  -0.09   0.00     0.06  -0.04   0.00
     4   6    -0.05  -0.09   0.00     0.03   0.00  -0.00     0.02  -0.00  -0.00
     5   6     0.05   0.04  -0.00    -0.05  -0.06   0.00    -0.05  -0.05  -0.00
     6   6     0.15   0.06  -0.00     0.17  -0.04  -0.00     0.05  -0.02   0.00
     7   6    -0.03   0.09  -0.00     0.01  -0.01   0.00    -0.00  -0.01   0.00
     8   6     0.10   0.02   0.00     0.17  -0.13   0.00     0.04  -0.11   0.00
     9   6     0.02  -0.06   0.00     0.01   0.09   0.00     0.01   0.08  -0.00
    10   6     0.03  -0.04   0.00     0.09  -0.03   0.00    -0.04   0.06  -0.00
    11   6     0.03  -0.02   0.00    -0.09   0.02  -0.00    -0.06   0.01  -0.00
    12   6    -0.19  -0.12  -0.00    -0.07   0.04  -0.00     0.14   0.03   0.00
    13   7     0.02   0.11  -0.00    -0.10   0.03  -0.00    -0.07  -0.02  -0.00
    14   7     0.00   0.00   0.00    -0.01   0.00   0.00    -0.05  -0.00  -0.00
    15   7    -0.00   0.00   0.00    -0.00  -0.00  -0.00     0.02   0.02  -0.00
    16   7     0.00   0.00  -0.00    -0.00   0.01   0.00     0.00  -0.05  -0.00
    17   7    -0.08   0.07   0.00    -0.08  -0.08   0.00    -0.00   0.00   0.00
    18   7     0.11   0.03   0.00    -0.04   0.10  -0.00    -0.02  -0.07   0.00
    19   6    -0.02  -0.09  -0.00    -0.14   0.17   0.00    -0.11   0.03   0.00
    20   6     0.06  -0.02  -0.00     0.08   0.01  -0.00     0.08   0.01  -0.00
    21   6    -0.09   0.02   0.00    -0.01   0.01   0.00    -0.02  -0.00   0.00
    22   6    -0.06  -0.15   0.00    -0.04   0.17  -0.00    -0.03   0.04   0.00
    23   6     0.09   0.06  -0.00    -0.00   0.02  -0.00     0.00   0.03  -0.00
    24   6    -0.04  -0.05   0.00    -0.06  -0.05   0.00    -0.05  -0.05   0.00
    25   7    -0.11  -0.03   0.00     0.04  -0.10  -0.00    -0.02  -0.07  -0.00
    26   7    -0.00  -0.00  -0.00     0.00  -0.01   0.00     0.00  -0.05  -0.00
    27   6     0.02   0.09  -0.00     0.14  -0.17   0.00    -0.11   0.03  -0.00
    28   6    -0.06   0.02  -0.00    -0.08  -0.01  -0.00     0.08   0.01   0.00
    29   6     0.09  -0.02   0.00     0.01  -0.01   0.00    -0.02  -0.00  -0.00
    30   6     0.06   0.15   0.00     0.04  -0.17  -0.00    -0.03   0.04   0.00
    31   6    -0.09  -0.06  -0.00     0.00  -0.02  -0.00     0.00   0.03   0.00
    32   6     0.04   0.05   0.00     0.06   0.05   0.00    -0.05  -0.05  -0.00
    33   7     0.08  -0.07  -0.00     0.08   0.08   0.00    -0.00   0.00   0.00
    34   7     0.00  -0.00   0.00     0.00   0.00  -0.00     0.02   0.02   0.00
    35   6     0.05   0.09   0.00    -0.03  -0.00  -0.00     0.02  -0.00   0.00
    36   6    -0.05  -0.04  -0.00     0.05   0.06   0.00    -0.05  -0.05  -0.00
    37   6    -0.15  -0.06  -0.00    -0.17   0.04  -0.00     0.05  -0.02   0.00
    38   6     0.02  -0.04  -0.00     0.02  -0.09  -0.00     0.01  -0.05  -0.00
    39   6     0.11   0.19   0.00     0.04  -0.08  -0.00     0.02   0.15   0.00
    40   6     0.04  -0.02   0.00    -0.04   0.09   0.00     0.06  -0.04  -0.00
    41   6    -0.03   0.04   0.00    -0.09   0.03   0.00    -0.04   0.06   0.00
    42   6    -0.03   0.02   0.00     0.09  -0.02  -0.00    -0.06   0.01   0.00
    43   6     0.19   0.12  -0.00     0.07  -0.04  -0.00     0.14   0.03  -0.00
    44   6     0.03  -0.09  -0.00    -0.01   0.01   0.00    -0.00  -0.01  -0.00
    45   6    -0.10  -0.02   0.00    -0.17   0.13   0.00     0.04  -0.11  -0.00
    46   6    -0.02   0.06   0.00    -0.01  -0.09  -0.00     0.01   0.08   0.00
    47   7    -0.00  -0.00   0.00     0.01  -0.00   0.00    -0.05  -0.00   0.00
    48   7    -0.02  -0.11  -0.00     0.10  -0.03  -0.00    -0.07  -0.02   0.00
    49   1     0.07   0.08  -0.00    -0.18   0.19   0.00    -0.15   0.17   0.00
    50   1     0.01  -0.22  -0.00     0.12   0.11  -0.00     0.10   0.05  -0.00
    51   1    -0.07  -0.08   0.00     0.20  -0.17   0.00     0.19  -0.17   0.00
    52   1     0.23  -0.00  -0.00     0.10   0.12  -0.00     0.08   0.11  -0.00
    53   1    -0.23  -0.02  -0.00    -0.09  -0.13  -0.00     0.33   0.02   0.00
    54   1    -0.01  -0.23   0.00     0.13   0.10   0.00     0.02   0.34  -0.00
    55   1    -0.01   0.22  -0.00    -0.12  -0.11  -0.00     0.10   0.05   0.00
    56   1    -0.07  -0.08  -0.00     0.18  -0.19   0.00    -0.15   0.17  -0.00
    57   1     0.07   0.08   0.00    -0.20   0.17   0.00     0.19  -0.17  -0.00
    58   1    -0.23   0.00  -0.00    -0.10  -0.12  -0.00     0.08   0.11   0.00
    59   1     0.23   0.02  -0.00     0.09   0.13   0.00     0.33   0.02  -0.00
    60   1     0.01   0.23   0.00    -0.13  -0.10   0.00     0.02   0.34   0.00
                    100                    101                    102
                      A                      A                      A
 Frequencies --   1041.3407              1060.2517              1064.7159
 Red. masses --      4.0344                 3.5578                12.0931
 Frc consts  --      2.5776                 2.3564                 8.0771
 IR Inten    --     56.7768                 0.0000                 0.0009
  Atom  AN      X      Y      Z        X      Y      Z        X      Y      Z
     1   6     0.02  -0.05   0.00     0.02  -0.04   0.00    -0.03  -0.01  -0.00
     2   6     0.04  -0.04   0.00    -0.01   0.10  -0.00    -0.15  -0.19   0.00
     3   6    -0.02   0.05  -0.00     0.05  -0.04   0.00     0.00   0.02   0.00
     4   6     0.02   0.09  -0.00    -0.01  -0.06   0.00    -0.02  -0.01   0.00
     5   6     0.02   0.01   0.00    -0.03  -0.03  -0.00     0.02  -0.02   0.00
     6   6    -0.13  -0.08   0.00     0.09   0.06  -0.00     0.24  -0.03  -0.00
     7   6     0.02  -0.07   0.00    -0.01   0.04  -0.00     0.03   0.01  -0.00
     8   6    -0.08   0.06  -0.00     0.05  -0.09   0.00     0.23  -0.09   0.00
     9   6    -0.03  -0.03  -0.00     0.02   0.06  -0.00    -0.01   0.02   0.00
    10   6    -0.05   0.02  -0.00    -0.04   0.05  -0.00     0.02   0.00   0.00
    11   6     0.04  -0.01   0.00    -0.04   0.01  -0.00    -0.01  -0.03   0.00
    12   6     0.06  -0.04   0.00     0.10  -0.01   0.00    -0.19  -0.16  -0.00
    13   7     0.04   0.01   0.00    -0.04  -0.01  -0.00    -0.05   0.18  -0.00
    14   7     0.02   0.03  -0.00    -0.05  -0.02  -0.00    -0.01   0.04   0.00
    15   7     0.04  -0.04  -0.00    -0.04   0.04   0.00    -0.03  -0.03   0.00
    16   7    -0.03  -0.02  -0.00    -0.01  -0.05  -0.00     0.04  -0.01   0.00
    17   7     0.06  -0.06  -0.00    -0.03   0.03   0.00    -0.13  -0.14   0.00
    18   7    -0.01  -0.05  -0.00    -0.01  -0.04  -0.00     0.19  -0.05   0.00
    19   6    -0.08   0.08   0.00     0.09  -0.04  -0.00    -0.09   0.23   0.00
    20   6     0.04   0.03  -0.00    -0.06  -0.02   0.00     0.02  -0.01  -0.00
    21   6     0.07  -0.02  -0.00    -0.04   0.01   0.00     0.01   0.03  -0.00
    22   6     0.07   0.13  -0.00    -0.06  -0.09   0.00    -0.04   0.24  -0.00
    23   6    -0.09  -0.02   0.00     0.06   0.01  -0.00    -0.01  -0.02   0.00
    24   6    -0.02  -0.02   0.00     0.03   0.03  -0.00    -0.03   0.02   0.00
    25   7    -0.01  -0.05  -0.00     0.01   0.04   0.00     0.19  -0.05  -0.00
    26   7    -0.03  -0.02   0.00     0.01   0.05   0.00     0.04  -0.01   0.00
    27   6    -0.08   0.08  -0.00    -0.09   0.04  -0.00    -0.09   0.23  -0.00
    28   6     0.04   0.03   0.00     0.06   0.02   0.00     0.02  -0.01   0.00
    29   6     0.07  -0.02   0.00     0.04  -0.01   0.00     0.01   0.03   0.00
    30   6     0.07   0.13   0.00     0.06   0.09   0.00    -0.04   0.24   0.00
    31   6    -0.09  -0.02  -0.00    -0.06  -0.01  -0.00    -0.01  -0.02  -0.00
    32   6    -0.02  -0.02  -0.00    -0.03  -0.03  -0.00    -0.03   0.02  -0.00
    33   7     0.06  -0.06  -0.00     0.03  -0.03  -0.00    -0.13  -0.14  -0.00
    34   7     0.04  -0.04  -0.00     0.04  -0.04  -0.00    -0.03  -0.03   0.00
    35   6     0.02   0.09   0.00     0.01   0.06   0.00    -0.02  -0.01  -0.00
    36   6     0.02   0.01  -0.00     0.03   0.03   0.00     0.02  -0.02  -0.00
    37   6    -0.13  -0.08  -0.00    -0.09  -0.06  -0.00     0.24  -0.03   0.00
    38   6     0.02  -0.05  -0.00    -0.02   0.04   0.00    -0.03  -0.01   0.00
    39   6     0.04  -0.04  -0.00     0.01  -0.10  -0.00    -0.15  -0.19  -0.00
    40   6    -0.02   0.05   0.00    -0.05   0.04   0.00     0.00   0.02   0.00
    41   6    -0.05   0.02   0.00     0.04  -0.05  -0.00     0.02   0.00  -0.00
    42   6     0.04  -0.01  -0.00     0.04  -0.01  -0.00    -0.01  -0.03  -0.00
    43   6     0.06  -0.04  -0.00    -0.10   0.01   0.00    -0.19  -0.16   0.00
    44   6     0.02  -0.07  -0.00     0.01  -0.04  -0.00     0.03   0.01   0.00
    45   6    -0.08   0.06   0.00    -0.05   0.09   0.00     0.23  -0.09  -0.00
    46   6    -0.03  -0.03  -0.00    -0.02  -0.06  -0.00    -0.01   0.02   0.00
    47   7     0.02   0.03   0.00     0.05   0.02  -0.00    -0.01   0.04   0.00
    48   7     0.04   0.01   0.00     0.04   0.01   0.00    -0.05   0.18   0.00
    49   1    -0.24   0.12   0.00     0.22  -0.13  -0.00    -0.05   0.02   0.00
    50   1     0.11   0.31  -0.00    -0.11  -0.23   0.00     0.03   0.04  -0.00
    51   1    -0.11   0.22  -0.00     0.14  -0.21   0.00     0.02  -0.05   0.00
    52   1    -0.30  -0.11   0.00     0.22   0.12  -0.00     0.04   0.03  -0.00
    53   1     0.08   0.08   0.00     0.25   0.01   0.00    -0.05   0.01  -0.00
    54   1    -0.07  -0.05  -0.00     0.01   0.25  -0.00     0.01  -0.05   0.00
    55   1     0.11   0.31   0.00     0.11   0.23   0.00     0.03   0.04   0.00
    56   1    -0.24   0.12  -0.00    -0.22   0.13  -0.00    -0.05   0.02  -0.00
    57   1    -0.11   0.22   0.00    -0.14   0.21   0.00     0.02  -0.05  -0.00
    58   1    -0.30  -0.11  -0.00    -0.22  -0.12  -0.00     0.04   0.03   0.00
    59   1     0.08   0.08  -0.00    -0.25  -0.01   0.00    -0.05   0.01   0.00
    60   1    -0.07  -0.05   0.00    -0.01  -0.25  -0.00     0.01  -0.05  -0.00
                    103                    104                    105
                      A                      A                      A
 Frequencies --   1110.5352              1131.3136              1131.5251
 Red. masses --      1.6665                 1.4262                 1.4288
 Frc consts  --      1.2109                 1.0755                 1.0779
 IR Inten    --      0.0007                 0.0000                 0.0000
  Atom  AN      X      Y      Z        X      Y      Z        X      Y      Z
     1   6     0.04  -0.02   0.00    -0.04   0.01  -0.00     0.00   0.00   0.00
     2   6    -0.02  -0.01  -0.00     0.02  -0.00   0.00     0.01   0.03  -0.00
     3   6     0.00   0.04  -0.00    -0.01  -0.04   0.00    -0.00   0.00  -0.00
     4   6    -0.04  -0.02   0.00     0.02   0.00  -0.00    -0.03  -0.01   0.00
     5   6    -0.00   0.04  -0.00     0.00  -0.02   0.00    -0.01   0.03  -0.00
     6   6     0.02  -0.02   0.00    -0.03   0.00   0.00    -0.01  -0.02   0.00
     7   6     0.02   0.03  -0.00    -0.01  -0.01   0.00     0.02   0.03  -0.00
     8   6    -0.03  -0.00   0.00    -0.01   0.03  -0.00    -0.03  -0.00   0.00
     9   6     0.02  -0.03   0.00    -0.01   0.01   0.00     0.03  -0.02   0.00
    10   6    -0.04  -0.01  -0.00     0.04   0.01   0.00    -0.00  -0.00  -0.00
    11   6     0.02  -0.04   0.00    -0.01   0.04  -0.00     0.00  -0.00   0.00
    12   6     0.01   0.02  -0.00     0.00  -0.02   0.00     0.03   0.01   0.00
    13   7     0.04   0.01   0.00    -0.02  -0.03   0.00     0.02  -0.03   0.00
    14   7    -0.00  -0.00  -0.00     0.01  -0.01   0.00    -0.00  -0.02   0.00
    15   7     0.00  -0.00  -0.00     0.01   0.01   0.00     0.01  -0.01  -0.00
    16   7     0.00   0.00  -0.00     0.01  -0.01   0.00    -0.02  -0.00  -0.00
    17   7    -0.03   0.03   0.00     0.03   0.03  -0.00    -0.02   0.02   0.00
    18   7    -0.01  -0.04  -0.00     0.02   0.02   0.00    -0.03   0.02  -0.00
    19   6     0.00   0.03  -0.00     0.03  -0.01  -0.00    -0.00   0.03   0.00
    20   6     0.03  -0.02  -0.00     0.01  -0.01   0.00     0.02  -0.03  -0.00
    21   6    -0.03  -0.02   0.00    -0.01  -0.02   0.00    -0.03  -0.02   0.00
    22   6     0.02  -0.02  -0.00     0.00  -0.03   0.00     0.02   0.01  -0.00
    23   6     0.02   0.04  -0.00     0.00   0.02  -0.00     0.01   0.03  -0.00
    24   6    -0.04   0.00   0.00    -0.02   0.00   0.00    -0.03   0.01   0.00
    25   7    -0.01  -0.04  -0.00    -0.02  -0.02   0.00     0.03  -0.02  -0.00
    26   7     0.00   0.00   0.00    -0.01   0.01   0.00     0.02   0.00  -0.00
    27   6     0.00   0.03   0.00    -0.03   0.01  -0.00     0.00  -0.03   0.00
    28   6     0.03  -0.02   0.00    -0.01   0.01   0.00    -0.02   0.03  -0.00
    29   6    -0.03  -0.02  -0.00     0.01   0.02   0.00     0.03   0.02   0.00
    30   6     0.02  -0.02   0.00    -0.00   0.03   0.00    -0.02  -0.01  -0.00
    31   6     0.02   0.04   0.00    -0.00  -0.02  -0.00    -0.01  -0.03  -0.00
    32   6    -0.04   0.00  -0.00     0.02  -0.00   0.00     0.03  -0.01   0.00
    33   7    -0.03   0.03   0.00    -0.03  -0.03  -0.00     0.02  -0.02   0.00
    34   7     0.00  -0.00  -0.00    -0.01  -0.01  -0.00    -0.01   0.01  -0.00
    35   6    -0.04  -0.02  -0.00    -0.02  -0.00  -0.00     0.03   0.01   0.00
    36   6    -0.00   0.04   0.00    -0.00   0.02   0.00     0.01  -0.03  -0.00
    37   6     0.02  -0.02  -0.00     0.03  -0.00   0.00     0.01   0.02   0.00
    38   6     0.04  -0.02  -0.00     0.04  -0.01  -0.00    -0.00  -0.00   0.00
    39   6    -0.02  -0.01   0.00    -0.02   0.00   0.00    -0.01  -0.03  -0.00
    40   6     0.00   0.04   0.00     0.01   0.04   0.00     0.00  -0.00  -0.00
    41   6    -0.04  -0.01   0.00    -0.04  -0.01   0.00     0.00   0.00  -0.00
    42   6     0.02  -0.04  -0.00     0.01  -0.04  -0.00    -0.00   0.00  -0.00
    43   6     0.01   0.02   0.00    -0.00   0.02   0.00    -0.03  -0.01   0.00
    44   6     0.02   0.03   0.00     0.01   0.01   0.00    -0.02  -0.03  -0.00
    45   6    -0.03  -0.00  -0.00     0.01  -0.03  -0.00     0.03   0.00   0.00
    46   6     0.02  -0.03  -0.00     0.01  -0.01  -0.00    -0.03   0.02   0.00
    47   7    -0.00  -0.00  -0.00    -0.01   0.01   0.00     0.00   0.02   0.00
    48   7     0.04   0.01   0.00     0.02   0.03   0.00    -0.02   0.03   0.00
    49   1    -0.17   0.22   0.00    -0.14   0.16   0.00    -0.23   0.25   0.00
    50   1    -0.03  -0.28   0.00    -0.04  -0.20  -0.00    -0.06  -0.34   0.00
    51   1    -0.22   0.17  -0.00     0.14  -0.12   0.00    -0.27   0.23  -0.00
    52   1     0.28   0.04   0.00    -0.17  -0.04  -0.00     0.35   0.07  -0.00
    53   1     0.26   0.11   0.00    -0.38  -0.14  -0.00     0.01   0.00   0.00
    54   1    -0.10  -0.26   0.00     0.13   0.39  -0.00    -0.01  -0.02   0.00
    55   1    -0.03  -0.28  -0.00     0.04   0.20   0.00     0.06   0.34   0.00
    56   1    -0.17   0.22  -0.00     0.14  -0.16   0.00     0.23  -0.25   0.00
    57   1    -0.22   0.17   0.00    -0.14   0.12   0.00     0.27  -0.23  -0.00
    58   1     0.28   0.04   0.00     0.17   0.04   0.00    -0.35  -0.07  -0.00
    59   1     0.26   0.11  -0.00     0.38   0.14  -0.00    -0.01  -0.00   0.00
    60   1    -0.10  -0.26  -0.00    -0.13  -0.39  -0.00     0.01   0.02   0.00
                    106                    107                    108
                      A                      A                      A
 Frequencies --   1137.3758              1141.7935              1142.0383
 Red. masses --      1.3846                 1.3170                 1.3190
 Frc consts  --      1.0553                 1.0116                 1.0136
 IR Inten    --      0.0000                72.4703                72.5323
  Atom  AN      X      Y      Z        X      Y      Z        X      Y      Z
     1   6    -0.02   0.01  -0.00     0.03  -0.01   0.00    -0.00   0.00  -0.00
     2   6    -0.01   0.01  -0.00    -0.00  -0.00  -0.00     0.00  -0.03   0.00
     3   6    -0.00  -0.02   0.00     0.01   0.03  -0.00    -0.00   0.01  -0.00
     4   6    -0.02  -0.01   0.00     0.01  -0.00  -0.00     0.03   0.01  -0.00
     5   6    -0.00   0.03  -0.00     0.00  -0.02   0.00     0.01  -0.03   0.00
     6   6     0.01   0.01   0.00     0.02   0.02  -0.00    -0.01  -0.01   0.00
     7   6     0.02   0.02  -0.00    -0.01  -0.01   0.00    -0.02  -0.03   0.00
     8   6    -0.00   0.01  -0.00     0.01  -0.02   0.00    -0.00   0.01  -0.00
     9   6     0.02  -0.02   0.00    -0.01   0.02  -0.00    -0.02   0.01   0.00
    10   6     0.02   0.01   0.00    -0.03  -0.01  -0.00     0.00  -0.00   0.00
    11   6    -0.01   0.02  -0.00     0.01  -0.03   0.00     0.00  -0.01   0.00
    12   6    -0.01   0.01  -0.00     0.00   0.00   0.00    -0.03   0.00  -0.00
    13   7     0.01  -0.04   0.00    -0.01   0.04  -0.00    -0.01   0.02  -0.00
    14   7     0.01  -0.03   0.00    -0.02   0.02  -0.00     0.01   0.02  -0.00
    15   7    -0.02  -0.02   0.00    -0.01   0.01   0.00     0.02   0.02  -0.00
    16   7     0.03  -0.01   0.00    -0.02   0.01  -0.00     0.02   0.01   0.00
    17   7    -0.03  -0.03   0.00     0.00  -0.01   0.00     0.03   0.03  -0.00
    18   7     0.04  -0.01   0.00    -0.04   0.01  -0.00     0.02  -0.01   0.00
    19   6     0.01   0.00  -0.00     0.02  -0.01  -0.00     0.01  -0.00  -0.00
    20   6    -0.02   0.02   0.00    -0.02   0.01   0.00     0.01  -0.02  -0.00
    21   6     0.02   0.02  -0.00     0.01   0.01  -0.00    -0.02  -0.02   0.00
    22   6     0.01   0.01   0.00    -0.02  -0.02   0.00    -0.01  -0.02   0.00
    23   6    -0.01  -0.02   0.00     0.00  -0.01  -0.00     0.01   0.03  -0.00
    24   6     0.03  -0.00  -0.00     0.02  -0.00  -0.00    -0.02   0.00   0.00
    25   7    -0.04   0.01   0.00    -0.04   0.01   0.00     0.02  -0.01  -0.00
    26   7    -0.03   0.01   0.00    -0.02   0.01   0.00     0.02   0.01  -0.00
    27   6    -0.01  -0.00  -0.00     0.02  -0.01   0.00     0.01  -0.00   0.00
    28   6     0.02  -0.02   0.00    -0.02   0.01  -0.00     0.01  -0.02  -0.00
    29   6    -0.02  -0.02  -0.00     0.01   0.01   0.00    -0.02  -0.02  -0.00
    30   6    -0.01  -0.01  -0.00    -0.02  -0.02  -0.00    -0.01  -0.02  -0.00
    31   6     0.01   0.02   0.00     0.00  -0.01  -0.00     0.01   0.03   0.00
    32   6    -0.03   0.00  -0.00     0.02  -0.00   0.00    -0.02   0.00  -0.00
    33   7     0.03   0.03   0.00     0.00  -0.01  -0.00     0.03   0.03   0.00
    34   7     0.02   0.02   0.00    -0.01   0.01  -0.00     0.02   0.02   0.00
    35   6     0.02   0.01   0.00     0.01  -0.00   0.00     0.03   0.01   0.00
    36   6     0.00  -0.03  -0.00     0.00  -0.02  -0.00     0.01  -0.03  -0.00
    37   6    -0.01  -0.01  -0.00     0.02   0.02   0.00    -0.01  -0.01  -0.00
    38   6     0.02  -0.01  -0.00     0.03  -0.01  -0.00    -0.00   0.00   0.00
    39   6     0.01  -0.01  -0.00    -0.00  -0.00   0.00     0.00  -0.03  -0.00
    40   6     0.00   0.02   0.00     0.01   0.03   0.00    -0.00   0.01   0.00
    41   6    -0.02  -0.01   0.00    -0.03  -0.01   0.00     0.00  -0.00  -0.00
    42   6     0.01  -0.02  -0.00     0.01  -0.03  -0.00     0.00  -0.01  -0.00
    43   6     0.01  -0.01  -0.00     0.00   0.00   0.00    -0.03   0.00   0.00
    44   6    -0.02  -0.02  -0.00    -0.01  -0.01  -0.00    -0.02  -0.03  -0.00
    45   6     0.00  -0.01  -0.00     0.01  -0.02  -0.00    -0.00   0.01   0.00
    46   6    -0.02   0.02   0.00    -0.01   0.02   0.00    -0.02   0.01   0.00
    47   7    -0.01   0.03   0.00    -0.02   0.02   0.00     0.01   0.02   0.00
    48   7    -0.01   0.04   0.00    -0.01   0.04   0.00    -0.01   0.02   0.00
    49   1     0.19  -0.21  -0.00     0.17  -0.17  -0.00    -0.22   0.24   0.00
    50   1     0.05   0.28  -0.00     0.03   0.20  -0.00    -0.07  -0.34   0.00
    51   1    -0.22   0.19  -0.00     0.15  -0.14   0.00     0.27  -0.23   0.00
    52   1     0.28   0.06  -0.00    -0.16  -0.03   0.00    -0.36  -0.09   0.00
    53   1    -0.26  -0.09  -0.00     0.38   0.13   0.00    -0.00   0.01  -0.00
    54   1     0.08   0.26  -0.00    -0.12  -0.38   0.00    -0.01  -0.05  -0.00
    55   1    -0.05  -0.28  -0.00     0.03   0.20   0.00    -0.07  -0.34  -0.00
    56   1    -0.19   0.21  -0.00     0.17  -0.17   0.00    -0.22   0.24  -0.00
    57   1     0.22  -0.19  -0.00     0.15  -0.14  -0.00     0.27  -0.23  -0.00
    58   1    -0.28  -0.06  -0.00    -0.16  -0.03  -0.00    -0.36  -0.09  -0.00
    59   1     0.26   0.09  -0.00     0.38   0.13  -0.00    -0.00   0.01  -0.00
    60   1    -0.08  -0.26  -0.00    -0.12  -0.38  -0.00    -0.01  -0.05  -0.00
                    109                    110                    111
                      A                      A                      A
 Frequencies --   1211.7248              1246.6858              1250.1773
 Red. masses --     12.4006                 3.9402                 2.6722
 Frc consts  --     10.7276                 3.6082                 2.4607
 IR Inten    --      0.0001                 0.0000                 0.0003
  Atom  AN      X      Y      Z        X      Y      Z        X      Y      Z
     1   6    -0.01  -0.17   0.00     0.06   0.01   0.00     0.05  -0.02   0.00
     2   6     0.08  -0.05   0.00     0.03  -0.09   0.00    -0.05  -0.07   0.00
     3   6    -0.06   0.03  -0.00    -0.03  -0.00  -0.00    -0.02   0.02  -0.00
     4   6     0.01  -0.06   0.00    -0.02   0.02  -0.00    -0.01  -0.03   0.00
     5   6     0.16   0.08  -0.00     0.03  -0.05   0.00    -0.01   0.06  -0.00
     6   6     0.00   0.10  -0.00    -0.06  -0.07  -0.00     0.08  -0.01  -0.00
     7   6    -0.10   0.14  -0.00    -0.05  -0.02   0.00     0.03   0.05  -0.00
     8   6     0.05   0.09  -0.00     0.02  -0.09   0.00    -0.08   0.03  -0.00
     9   6    -0.04  -0.05   0.00     0.03   0.01  -0.00    -0.01  -0.03   0.00
    10   6    -0.03   0.06  -0.00    -0.00   0.03  -0.00    -0.02   0.02  -0.00
    11   6     0.17   0.02   0.00    -0.01  -0.06   0.00     0.02  -0.05   0.00
    12   6     0.05  -0.08   0.00     0.09  -0.03   0.00     0.07   0.05   0.00
    13   7    -0.15  -0.04  -0.00    -0.02   0.08  -0.00     0.05   0.01   0.00
    14   7    -0.21  -0.06  -0.00    -0.03   0.09  -0.00    -0.01  -0.00   0.00
    15   7     0.16  -0.15   0.00     0.06   0.07  -0.00     0.01  -0.01   0.00
    16   7     0.05   0.21   0.00    -0.09   0.02  -0.00     0.00   0.01   0.00
    17   7     0.11  -0.11  -0.00     0.06   0.06  -0.00    -0.04   0.03   0.00
    18   7     0.04   0.15  -0.00    -0.08   0.02  -0.00    -0.01  -0.05  -0.00
    19   6    -0.09  -0.05   0.00    -0.10   0.02   0.00    -0.03   0.08   0.00
    20   6     0.05   0.04  -0.00     0.01   0.03  -0.00     0.03   0.01  -0.00
    21   6    -0.14   0.10   0.00    -0.02  -0.05   0.00    -0.05  -0.03   0.00
    22   6    -0.10  -0.00   0.00    -0.07  -0.07   0.00     0.01  -0.08  -0.00
    23   6     0.06  -0.00  -0.00     0.03  -0.01  -0.00     0.03   0.01  -0.00
    24   6    -0.07  -0.16   0.00    -0.05   0.03   0.00    -0.06   0.01   0.00
    25   7     0.04   0.15   0.00     0.08  -0.02  -0.00    -0.01  -0.05  -0.00
    26   7     0.05   0.21   0.00     0.09  -0.02  -0.00     0.00   0.01   0.00
    27   6    -0.09  -0.05  -0.00     0.10  -0.02   0.00    -0.03   0.08  -0.00
    28   6     0.05   0.04   0.00    -0.01  -0.03  -0.00     0.03   0.01   0.00
    29   6    -0.14   0.10  -0.00     0.02   0.05   0.00    -0.05  -0.03  -0.00
    30   6    -0.10  -0.00  -0.00     0.07   0.07   0.00     0.01  -0.08  -0.00
    31   6     0.06  -0.00   0.00    -0.03   0.01  -0.00     0.03   0.01   0.00
    32   6    -0.07  -0.16  -0.00     0.05  -0.03   0.00    -0.06   0.01  -0.00
    33   7     0.11  -0.11  -0.00    -0.06  -0.06  -0.00    -0.04   0.03   0.00
    34   7     0.16  -0.15  -0.00    -0.06  -0.07  -0.00     0.01  -0.01   0.00
    35   6     0.01  -0.06  -0.00     0.02  -0.02  -0.00    -0.01  -0.03  -0.00
    36   6     0.16   0.08   0.00    -0.03   0.05   0.00    -0.01   0.06   0.00
    37   6     0.00   0.10   0.00     0.06   0.07   0.00     0.08  -0.01   0.00
    38   6    -0.01  -0.17  -0.00    -0.06  -0.01   0.00     0.05  -0.02  -0.00
    39   6     0.08  -0.05  -0.00    -0.03   0.09   0.00    -0.05  -0.07  -0.00
    40   6    -0.06   0.03   0.00     0.03   0.00  -0.00    -0.02   0.02   0.00
    41   6    -0.03   0.06   0.00     0.00  -0.03  -0.00    -0.02   0.02   0.00
    42   6     0.17   0.02  -0.00     0.01   0.06   0.00     0.02  -0.05  -0.00
    43   6     0.05  -0.08  -0.00    -0.09   0.03   0.00     0.07   0.05  -0.00
    44   6    -0.10   0.14   0.00     0.05   0.02   0.00     0.03   0.05   0.00
    45   6     0.05   0.09   0.00    -0.02   0.09   0.00    -0.08   0.03   0.00
    46   6    -0.04  -0.05  -0.00    -0.03  -0.01  -0.00    -0.01  -0.03  -0.00
    47   7    -0.21  -0.06   0.00     0.03  -0.09  -0.00    -0.01  -0.00   0.00
    48   7    -0.15  -0.04  -0.00     0.02  -0.08  -0.00     0.05   0.01  -0.00
    49   1     0.01   0.06  -0.00     0.19  -0.17  -0.00     0.21  -0.16  -0.00
    50   1     0.04  -0.04  -0.00     0.07   0.24   0.00     0.09   0.25  -0.00
    51   1    -0.06  -0.01   0.00    -0.17   0.18  -0.00     0.17  -0.21   0.00
    52   1     0.04  -0.04   0.00     0.24   0.08   0.00    -0.25  -0.10   0.00
    53   1     0.02   0.05  -0.00    -0.24  -0.06  -0.00    -0.26  -0.04  -0.00
    54   1    -0.05  -0.02  -0.00     0.05   0.25   0.00     0.04   0.26  -0.00
    55   1     0.04  -0.04  -0.00    -0.07  -0.24  -0.00     0.09   0.25   0.00
    56   1     0.01   0.06   0.00    -0.19   0.17  -0.00     0.21  -0.16   0.00
    57   1    -0.06  -0.01  -0.00     0.17  -0.18  -0.00     0.17  -0.21  -0.00
    58   1     0.04  -0.04  -0.00    -0.24  -0.08  -0.00    -0.25  -0.10  -0.00
    59   1     0.02   0.05   0.00     0.24   0.06  -0.00    -0.26  -0.04   0.00
    60   1    -0.05  -0.02   0.00    -0.05  -0.25  -0.00     0.04   0.26   0.00
                    112                    113                    114
                      A                      A                      A
 Frequencies --   1254.9391              1255.3992              1260.7821
 Red. masses --     10.5872                10.4879                 5.1687
 Frc consts  --      9.8237                 9.7387                 4.8408
 IR Inten    --      0.0000                 0.0000                 0.1731
  Atom  AN      X      Y      Z        X      Y      Z        X      Y      Z
     1   6    -0.02   0.19  -0.00     0.11   0.02   0.00     0.08   0.01   0.00
     2   6    -0.10   0.10  -0.00     0.03   0.03   0.00    -0.02   0.03  -0.00
     3   6     0.07  -0.03   0.00     0.02  -0.04   0.00     0.02  -0.03   0.00
     4   6     0.02   0.08  -0.00     0.02  -0.05   0.00    -0.00  -0.05   0.00
     5   6    -0.14   0.02  -0.00     0.09   0.14  -0.00     0.00   0.03  -0.00
     6   6    -0.05  -0.06   0.00     0.01   0.12  -0.00     0.09   0.11  -0.00
     7   6    -0.05  -0.12   0.00    -0.13   0.13  -0.00     0.08   0.07  -0.00
     8   6    -0.05  -0.06   0.00     0.01   0.12  -0.00    -0.03   0.10  -0.00
     9   6     0.03  -0.01  -0.00    -0.04  -0.08   0.00    -0.03  -0.01   0.00
    10   6     0.04  -0.07   0.00    -0.05   0.02  -0.00    -0.04   0.02  -0.00
    11   6    -0.19   0.01  -0.00     0.02   0.11  -0.00     0.01   0.07  -0.00
    12   6    -0.10   0.09  -0.00     0.03   0.03  -0.00     0.04  -0.02   0.00
    13   7     0.16  -0.01   0.00    -0.06  -0.11   0.00     0.01  -0.06   0.00
    14   7     0.22   0.02   0.00    -0.10  -0.10   0.00    -0.05  -0.08   0.00
    15   7     0.06   0.06  -0.00     0.18  -0.18  -0.00    -0.10  -0.10   0.00
    16   7    -0.01  -0.22   0.00    -0.10  -0.11  -0.00    -0.09  -0.04  -0.00
    17   7     0.07   0.08  -0.00     0.12  -0.12  -0.00    -0.09  -0.09   0.00
    18   7     0.01  -0.16   0.00    -0.11  -0.06  -0.00    -0.07   0.01  -0.00
    19   6    -0.05  -0.05   0.00    -0.12  -0.01   0.00     0.11  -0.03  -0.00
    20   6    -0.01   0.03  -0.00     0.08   0.04  -0.00    -0.01  -0.03   0.00
    21   6    -0.12  -0.05   0.00    -0.13   0.12   0.00     0.07   0.08  -0.00
    22   6    -0.06  -0.05   0.00    -0.12  -0.02   0.00     0.11   0.10  -0.00
    23   6     0.07   0.02  -0.00     0.05  -0.02  -0.00    -0.05  -0.00   0.00
    24   6     0.02  -0.14  -0.00    -0.13  -0.10   0.00     0.04   0.00  -0.00
    25   7    -0.01   0.16   0.00     0.11   0.06  -0.00    -0.07   0.01   0.00
    26   7     0.01   0.22   0.00     0.10   0.11  -0.00    -0.09  -0.04   0.00
    27   6     0.05   0.05   0.00     0.12   0.01   0.00     0.11  -0.03   0.00
    28   6     0.01  -0.03  -0.00    -0.08  -0.04  -0.00    -0.01  -0.03  -0.00
    29   6     0.12   0.05   0.00     0.13  -0.12   0.00     0.07   0.08   0.00
    30   6     0.06   0.05   0.00     0.12   0.02   0.00     0.11   0.10   0.00
    31   6    -0.07  -0.02  -0.00    -0.05   0.02  -0.00    -0.05  -0.00  -0.00
    32   6    -0.02   0.14  -0.00     0.13   0.10   0.00     0.04   0.00   0.00
    33   7    -0.07  -0.08  -0.00    -0.12   0.12   0.00    -0.09  -0.09  -0.00
    34   7    -0.06  -0.06  -0.00    -0.18   0.18   0.00    -0.10  -0.10  -0.00
    35   6    -0.02  -0.08  -0.00    -0.02   0.05   0.00    -0.00  -0.05  -0.00
    36   6     0.14  -0.02  -0.00    -0.09  -0.14  -0.00     0.00   0.03   0.00
    37   6     0.05   0.06   0.00    -0.01  -0.12  -0.00     0.09   0.11   0.00
    38   6     0.02  -0.19  -0.00    -0.11  -0.02   0.00     0.08   0.01  -0.00
    39   6     0.10  -0.10  -0.00    -0.03  -0.03  -0.00    -0.02   0.03   0.00
    40   6    -0.07   0.03   0.00    -0.02   0.04   0.00     0.02  -0.03  -0.00
    41   6    -0.04   0.07   0.00     0.05  -0.02  -0.00    -0.04   0.02   0.00
    42   6     0.19  -0.01  -0.00    -0.02  -0.11  -0.00     0.01   0.07   0.00
    43   6     0.10  -0.09  -0.00    -0.03  -0.03  -0.00     0.04  -0.02  -0.00
    44   6     0.05   0.12   0.00     0.13  -0.13  -0.00     0.08   0.07   0.00
    45   6     0.05   0.06   0.00    -0.01  -0.12  -0.00    -0.03   0.10   0.00
    46   6    -0.03   0.01  -0.00     0.04   0.08   0.00    -0.03  -0.01  -0.00
    47   7    -0.22  -0.02   0.00     0.10   0.10   0.00    -0.05  -0.08  -0.00
    48   7    -0.16   0.01   0.00     0.06   0.11   0.00     0.01  -0.06  -0.00
    49   1     0.16  -0.05  -0.00     0.07  -0.03  -0.00    -0.26   0.19   0.00
    50   1    -0.02  -0.01   0.00     0.12   0.14  -0.00    -0.07  -0.24   0.00
    51   1    -0.05   0.16  -0.00     0.03  -0.07   0.00     0.19  -0.25   0.00
    52   1    -0.01  -0.02   0.00    -0.14  -0.12   0.00    -0.22  -0.06   0.00
    53   1     0.14  -0.03   0.00     0.10  -0.03   0.00     0.06  -0.02   0.00
    54   1     0.03  -0.14   0.00    -0.03   0.10  -0.00    -0.02   0.09  -0.00
    55   1     0.02   0.01   0.00    -0.12  -0.14  -0.00    -0.07  -0.24  -0.00
    56   1    -0.16   0.05  -0.00    -0.07   0.03  -0.00    -0.26   0.19  -0.00
    57   1     0.05  -0.16  -0.00    -0.03   0.07   0.00     0.19  -0.25  -0.00
    58   1     0.01   0.02   0.00     0.13   0.12   0.00    -0.22  -0.06  -0.00
    59   1    -0.14   0.03   0.00    -0.10   0.03   0.00     0.06  -0.02  -0.00
    60   1    -0.03   0.14   0.00     0.03  -0.10  -0.00    -0.02   0.09   0.00
                    115                    116                    117
                      A                      A                      A
 Frequencies --   1260.8668              1272.5589              1272.7109
 Red. masses --      5.1896                 2.9110                 2.9263
 Frc consts  --      4.8609                 2.7774                 2.7928
 IR Inten    --      0.1688                 0.0000                 0.0000
  Atom  AN      X      Y      Z        X      Y      Z        X      Y      Z
     1   6    -0.08   0.02  -0.00    -0.03   0.06  -0.00    -0.07  -0.04  -0.00
     2   6    -0.04   0.14  -0.00     0.03   0.05  -0.00     0.07   0.06   0.00
     3   6     0.04  -0.01   0.00     0.01   0.00   0.00     0.01  -0.01   0.00
     4   6     0.02   0.00   0.00    -0.00  -0.01   0.00    -0.01   0.01  -0.00
     5   6    -0.05   0.10  -0.00    -0.08   0.01  -0.00     0.00  -0.07   0.00
     6   6     0.04   0.03  -0.00     0.05  -0.03   0.00    -0.10   0.01   0.00
     7   6    -0.03   0.01  -0.00     0.04   0.06  -0.00    -0.07   0.03   0.00
     8   6    -0.02   0.11  -0.00    -0.09   0.03  -0.00     0.06   0.00  -0.00
     9   6    -0.01  -0.05   0.00    -0.01  -0.01   0.00     0.00   0.01  -0.00
    10   6     0.01  -0.04   0.00     0.00   0.01  -0.00     0.00  -0.02   0.00
    11   6    -0.02   0.08  -0.00     0.07   0.01   0.00     0.00   0.08  -0.00
    12   6    -0.14   0.04  -0.00     0.01  -0.01   0.00    -0.08  -0.08  -0.00
    13   7     0.03  -0.11   0.00     0.03  -0.05   0.00    -0.05  -0.03  -0.00
    14   7     0.07  -0.11   0.00    -0.00  -0.01  -0.00     0.01   0.00   0.00
    15   7     0.05  -0.06   0.00     0.01  -0.00   0.00     0.00   0.01   0.00
    16   7     0.10  -0.07   0.00    -0.00  -0.00   0.00     0.00  -0.01   0.00
    17   7     0.00  -0.01   0.00    -0.03   0.05  -0.00     0.05   0.03  -0.00
    18   7     0.10  -0.03   0.00    -0.03   0.05  -0.00     0.05   0.03   0.00
    19   6    -0.10   0.01   0.00    -0.03   0.11   0.00     0.02   0.00  -0.00
    20   6     0.05   0.01  -0.00     0.01   0.01  -0.00     0.00  -0.01   0.00
    21   6     0.00   0.03  -0.00    -0.04  -0.07   0.00     0.06  -0.05  -0.00
    22   6    -0.02  -0.03   0.00     0.03  -0.09  -0.00    -0.00  -0.06   0.00
    23   6    -0.01  -0.03   0.00     0.01  -0.00  -0.00     0.01  -0.01  -0.00
    24   6    -0.09   0.05   0.00    -0.04   0.07   0.00    -0.06  -0.04   0.00
    25   7     0.10  -0.03  -0.00     0.03  -0.05  -0.00    -0.05  -0.03   0.00
    26   7     0.10  -0.07  -0.00     0.00   0.00   0.00    -0.00   0.01   0.00
    27   6    -0.10   0.01  -0.00     0.03  -0.11   0.00    -0.02  -0.00  -0.00
    28   6     0.05   0.01   0.00    -0.01  -0.01  -0.00    -0.00   0.01   0.00
    29   6     0.00   0.03   0.00     0.04   0.07   0.00    -0.06   0.05  -0.00
    30   6    -0.02  -0.03  -0.00    -0.03   0.09   0.00     0.00   0.06   0.00
    31   6    -0.01  -0.03  -0.00    -0.01   0.00  -0.00    -0.01   0.01  -0.00
    32   6    -0.09   0.05  -0.00     0.04  -0.07   0.00     0.06   0.04   0.00
    33   7     0.00  -0.01  -0.00     0.03  -0.05  -0.00    -0.05  -0.03  -0.00
    34   7     0.05  -0.06  -0.00    -0.01   0.00   0.00    -0.00  -0.01   0.00
    35   6     0.02   0.00   0.00     0.00   0.01   0.00     0.01  -0.01  -0.00
    36   6    -0.05   0.10   0.00     0.08  -0.01  -0.00    -0.00   0.07   0.00
    37   6     0.04   0.03   0.00    -0.05   0.03   0.00     0.10  -0.01   0.00
    38   6    -0.08   0.02   0.00     0.03  -0.06  -0.00     0.07   0.04  -0.00
    39   6    -0.04   0.14   0.00    -0.03  -0.05  -0.00    -0.07  -0.06  -0.00
    40   6     0.04  -0.01  -0.00    -0.01  -0.00   0.00    -0.01   0.01   0.00
    41   6     0.01  -0.04  -0.00    -0.00  -0.01  -0.00    -0.00   0.02   0.00
    42   6    -0.02   0.08   0.00    -0.07  -0.01   0.00    -0.00  -0.08  -0.00
    43   6    -0.14   0.04   0.00    -0.01   0.01   0.00     0.08   0.08   0.00
    44   6    -0.03   0.01  -0.00    -0.04  -0.06  -0.00     0.07  -0.03   0.00
    45   6    -0.02   0.11   0.00     0.09  -0.03  -0.00    -0.06  -0.00  -0.00
    46   6    -0.01  -0.05  -0.00     0.01   0.01   0.00    -0.00  -0.01  -0.00
    47   7     0.07  -0.11  -0.00     0.00   0.01  -0.00    -0.01  -0.00   0.00
    48   7     0.03  -0.11  -0.00    -0.03   0.05   0.00     0.05   0.03   0.00
    49   1     0.04  -0.07  -0.00     0.23  -0.21  -0.00    -0.15   0.14   0.00
    50   1     0.10   0.19  -0.00     0.05   0.15  -0.00     0.09   0.32  -0.00
    51   1     0.09  -0.06   0.00     0.26  -0.27   0.00     0.02  -0.02   0.00
    52   1    -0.20  -0.11   0.00     0.03   0.00  -0.00     0.35   0.11  -0.00
    53   1     0.31   0.06   0.00    -0.21  -0.05  -0.00     0.30   0.07   0.00
    54   1    -0.05  -0.31   0.00    -0.07  -0.33   0.00    -0.03  -0.16   0.00
    55   1     0.10   0.19   0.00    -0.05  -0.15  -0.00    -0.09  -0.32  -0.00
    56   1     0.04  -0.07  -0.00    -0.23   0.21  -0.00     0.15  -0.14   0.00
    57   1     0.09  -0.06  -0.00    -0.26   0.27   0.00    -0.02   0.02   0.00
    58   1    -0.20  -0.11  -0.00    -0.03  -0.00  -0.00    -0.35  -0.11  -0.00
    59   1     0.31   0.06  -0.00     0.21   0.05  -0.00    -0.30  -0.07   0.00
    60   1    -0.05  -0.31  -0.00     0.07   0.33   0.00     0.03   0.16   0.00
                    118                    119                    120
                      A                      A                      A
 Frequencies --   1278.7097              1291.3566              1291.5348
 Red. masses --      1.7972                 2.4293                 2.4323
 Frc consts  --      1.7314                 2.3869                 2.3905
 IR Inten    --      0.0003                 0.0000                 0.0000
  Atom  AN      X      Y      Z        X      Y      Z        X      Y      Z
     1   6    -0.01   0.07  -0.00     0.04  -0.04   0.00    -0.00  -0.08   0.00
     2   6     0.02  -0.01   0.00    -0.04  -0.03  -0.00    -0.03   0.04  -0.00
     3   6     0.01   0.01   0.00    -0.01   0.02  -0.00    -0.02  -0.01  -0.00
     4   6    -0.01   0.01  -0.00    -0.03  -0.00   0.00     0.00  -0.02   0.00
     5   6    -0.05  -0.04   0.00    -0.05  -0.00  -0.00     0.05   0.06  -0.00
     6   6    -0.00   0.02  -0.00     0.04   0.03  -0.00     0.03  -0.04   0.00
     7   6    -0.03   0.06  -0.00    -0.01   0.07  -0.00     0.05  -0.04  -0.00
     8   6    -0.01  -0.02   0.00    -0.05  -0.01   0.00    -0.01   0.05  -0.00
     9   6    -0.01  -0.00   0.00    -0.01  -0.02   0.00     0.02  -0.01   0.00
    10   6     0.01   0.01  -0.00    -0.02  -0.01  -0.00     0.00  -0.02   0.00
    11   6     0.07  -0.01   0.00    -0.01  -0.03   0.00    -0.08   0.02  -0.00
    12   6    -0.01   0.02  -0.00     0.05   0.01   0.00     0.01  -0.05   0.00
    13   7     0.00  -0.01   0.00     0.07   0.02   0.00     0.02  -0.00   0.00
    14   7    -0.01   0.03  -0.00     0.03   0.02  -0.00     0.02  -0.06   0.00
    15   7    -0.02  -0.02   0.00    -0.05  -0.04   0.00    -0.01   0.03  -0.00
    16   7     0.03  -0.01   0.00    -0.05  -0.01  -0.00    -0.03   0.03  -0.00
    17   7     0.01   0.01   0.00    -0.02   0.01   0.00    -0.05   0.05   0.00
    18   7    -0.01   0.00  -0.00    -0.02  -0.05  -0.00     0.01   0.06  -0.00
    19   6    -0.02  -0.01   0.00    -0.04  -0.03   0.00    -0.03   0.04   0.00
    20   6    -0.00  -0.01   0.00    -0.01  -0.02   0.00     0.02  -0.01  -0.00
    21   6     0.06  -0.03  -0.00     0.08  -0.03  -0.00    -0.01  -0.03   0.00
    22   6     0.02  -0.00  -0.00     0.05   0.01  -0.00     0.01  -0.05  -0.00
    23   6     0.01  -0.01  -0.00     0.01  -0.02  -0.00     0.02   0.02  -0.00
    24   6    -0.04  -0.05   0.00    -0.04  -0.07   0.00    -0.05  -0.01   0.00
    25   7    -0.01   0.00   0.00     0.02   0.05   0.00    -0.01  -0.06  -0.00
    26   7     0.03  -0.01  -0.00     0.05   0.01  -0.00     0.03  -0.03  -0.00
    27   6    -0.02  -0.01  -0.00     0.04   0.03   0.00     0.03  -0.04   0.00
    28   6    -0.00  -0.01  -0.00     0.01   0.02   0.00    -0.02   0.01  -0.00
    29   6     0.06  -0.03   0.00    -0.08   0.03  -0.00     0.01   0.03   0.00
    30   6     0.02  -0.00   0.00    -0.05  -0.01  -0.00    -0.01   0.05   0.00
    31   6     0.01  -0.01  -0.00    -0.01   0.02   0.00    -0.02  -0.02  -0.00
    32   6    -0.04  -0.05  -0.00     0.04   0.07   0.00     0.05   0.01   0.00
    33   7     0.01   0.01   0.00     0.02  -0.01   0.00     0.05  -0.05  -0.00
    34   7    -0.02  -0.02  -0.00     0.05   0.04   0.00     0.01  -0.03  -0.00
    35   6    -0.01   0.01   0.00     0.03   0.00   0.00    -0.00   0.02   0.00
    36   6    -0.05  -0.04  -0.00     0.05   0.00   0.00    -0.05  -0.06  -0.00
    37   6    -0.00   0.02   0.00    -0.04  -0.03  -0.00    -0.03   0.04   0.00
    38   6    -0.01   0.07   0.00    -0.04   0.04   0.00     0.00   0.08   0.00
    39   6     0.02  -0.01  -0.00     0.04   0.03   0.00     0.03  -0.04  -0.00
    40   6     0.01   0.01  -0.00     0.01  -0.02  -0.00     0.02   0.01   0.00
    41   6     0.01   0.01   0.00     0.02   0.01  -0.00    -0.00   0.02   0.00
    42   6     0.07  -0.01  -0.00     0.01   0.03   0.00     0.08  -0.02  -0.00
    43   6    -0.01   0.02   0.00    -0.05  -0.01   0.00    -0.01   0.05   0.00
    44   6    -0.03   0.06   0.00     0.01  -0.07  -0.00    -0.05   0.04   0.00
    45   6    -0.01  -0.02  -0.00     0.05   0.01   0.00     0.01  -0.05  -0.00
    46   6    -0.01  -0.00  -0.00     0.01   0.02   0.00    -0.02   0.01   0.00
    47   7    -0.01   0.03   0.00    -0.03  -0.02  -0.00    -0.02   0.06   0.00
    48   7     0.00  -0.01  -0.00    -0.07  -0.02  -0.00    -0.02   0.00   0.00
    49   1    -0.20   0.19   0.00    -0.28   0.25   0.00     0.08  -0.04  -0.00
    50   1     0.08   0.27  -0.00     0.08   0.30  -0.00     0.08   0.20  -0.00
    51   1     0.19  -0.20   0.00     0.23  -0.26   0.00    -0.12   0.10  -0.00
    52   1     0.27   0.08  -0.00     0.12   0.02  -0.00    -0.34  -0.12   0.00
    53   1    -0.27  -0.07  -0.00    -0.04   0.01  -0.00     0.37   0.09   0.00
    54   1    -0.06  -0.27   0.00     0.03   0.25  -0.00     0.07   0.27  -0.00
    55   1     0.08   0.27   0.00    -0.08  -0.30  -0.00    -0.08  -0.20  -0.00
    56   1    -0.20   0.19  -0.00     0.28  -0.25   0.00    -0.08   0.04  -0.00
    57   1     0.19  -0.20  -0.00    -0.23   0.26   0.00     0.12  -0.10  -0.00
    58   1     0.27   0.08   0.00    -0.12  -0.02  -0.00     0.34   0.12   0.00
    59   1    -0.27  -0.07   0.00     0.04  -0.01  -0.00    -0.37  -0.09   0.00
    60   1    -0.06  -0.27  -0.00    -0.03  -0.25  -0.00    -0.07  -0.27  -0.00
                    121                    122                    123
                      A                      A                      A
 Frequencies --   1312.4669              1312.6686              1330.0185
 Red. masses --      2.7592                 2.7798                 7.6840
 Frc consts  --      2.8003                 2.8221                 8.0085
 IR Inten    --     76.0440                77.2565                15.4145
  Atom  AN      X      Y      Z        X      Y      Z        X      Y      Z
     1   6     0.03  -0.07   0.00    -0.03  -0.10  -0.00    -0.11  -0.09  -0.00
     2   6    -0.01  -0.04   0.00     0.05   0.02   0.00    -0.11   0.06  -0.00
     3   6    -0.03  -0.01  -0.00    -0.00   0.04  -0.00    -0.05   0.02  -0.00
     4   6    -0.04  -0.01   0.00    -0.00   0.03  -0.00    -0.01   0.04  -0.00
     5   6     0.07  -0.01   0.00    -0.09  -0.07   0.00    -0.15   0.04  -0.00
     6   6    -0.06   0.03  -0.00    -0.01  -0.03   0.00     0.06   0.02  -0.00
     7   6    -0.08   0.09   0.00     0.02   0.05  -0.00     0.01  -0.02   0.00
     8   6     0.04   0.02  -0.00    -0.05   0.02  -0.00    -0.10  -0.06   0.00
     9   6     0.00  -0.03   0.00    -0.03   0.01  -0.00    -0.00  -0.02  -0.00
    10   6    -0.00  -0.03   0.00    -0.04  -0.00  -0.00     0.03  -0.05   0.00
    11   6    -0.09   0.02  -0.00     0.09   0.04   0.00    -0.08  -0.11   0.00
    12   6    -0.03  -0.01  -0.00    -0.02  -0.06   0.00     0.06  -0.11   0.00
    13   7     0.00   0.03  -0.00     0.02  -0.04   0.00     0.19   0.05   0.00
    14   7     0.02  -0.01   0.00     0.00   0.02  -0.00     0.13   0.02   0.00
    15   7    -0.02  -0.02   0.00     0.01  -0.01  -0.00    -0.03  -0.02   0.00
    16   7    -0.01   0.02  -0.00    -0.03  -0.00  -0.00     0.02   0.13  -0.00
    17   7     0.03   0.03  -0.00     0.01  -0.00  -0.00    -0.01  -0.01   0.00
    18   7     0.02   0.01   0.00     0.04  -0.01   0.00     0.04   0.20   0.00
    19   6     0.02   0.03  -0.00    -0.02   0.05   0.00    -0.06  -0.11   0.00
    20   6    -0.03  -0.00   0.00    -0.01   0.03   0.00    -0.02  -0.00   0.00
    21   6     0.10  -0.07  -0.00    -0.03  -0.03   0.00    -0.02   0.01   0.00
    22   6     0.03  -0.06  -0.00     0.03   0.00  -0.00     0.02   0.06  -0.00
    23   6    -0.01  -0.04   0.00    -0.03  -0.00   0.00     0.04  -0.01  -0.00
    24   6    -0.02   0.05   0.00     0.06   0.10  -0.00     0.05  -0.15  -0.00
    25   7     0.02   0.01  -0.00     0.04  -0.01  -0.00     0.04   0.20   0.00
    26   7    -0.01   0.02   0.00    -0.03  -0.00   0.00     0.02   0.13   0.00
    27   6     0.02   0.03   0.00    -0.02   0.05  -0.00    -0.06  -0.11  -0.00
    28   6    -0.03  -0.00  -0.00    -0.01   0.03   0.00    -0.02  -0.00  -0.00
    29   6     0.10  -0.07   0.00    -0.03  -0.03  -0.00    -0.02   0.01  -0.00
    30   6     0.03  -0.06  -0.00     0.03   0.00   0.00     0.02   0.06   0.00
    31   6    -0.01  -0.04  -0.00    -0.03  -0.00  -0.00     0.04  -0.01   0.00
    32   6    -0.02   0.05  -0.00     0.06   0.10   0.00     0.05  -0.15   0.00
    33   7     0.03   0.03   0.00     0.01  -0.00   0.00    -0.01  -0.01  -0.00
    34   7    -0.02  -0.02  -0.00     0.01  -0.01  -0.00    -0.03  -0.02  -0.00
    35   6    -0.04  -0.01  -0.00    -0.00   0.03   0.00    -0.01   0.04   0.00
    36   6     0.07  -0.01  -0.00    -0.09  -0.07  -0.00    -0.15   0.04   0.00
    37   6    -0.06   0.03   0.00    -0.01  -0.03  -0.00     0.06   0.02   0.00
    38   6     0.03  -0.07  -0.00    -0.03  -0.10  -0.00    -0.11  -0.09   0.00
    39   6    -0.01  -0.04  -0.00     0.05   0.02  -0.00    -0.11   0.06   0.00
    40   6    -0.03  -0.01   0.00    -0.00   0.04   0.00    -0.05   0.02   0.00
    41   6    -0.00  -0.03  -0.00    -0.04  -0.00   0.00     0.03  -0.05  -0.00
    42   6    -0.09   0.02   0.00     0.09   0.04   0.00    -0.08  -0.11  -0.00
    43   6    -0.03  -0.01   0.00    -0.02  -0.06  -0.00     0.06  -0.11  -0.00
    44   6    -0.08   0.09   0.00     0.02   0.05   0.00     0.01  -0.02  -0.00
    45   6     0.04   0.02   0.00    -0.05   0.02   0.00    -0.10  -0.06  -0.00
    46   6     0.00  -0.03  -0.00    -0.03   0.01   0.00    -0.00  -0.02  -0.00
    47   7     0.02  -0.01  -0.00     0.00   0.02   0.00     0.13   0.02  -0.00
    48   7     0.00   0.03   0.00     0.02  -0.04  -0.00     0.19   0.05   0.00
    49   1    -0.19   0.12   0.00     0.20  -0.22  -0.00    -0.15   0.17   0.00
    50   1     0.02   0.20   0.00    -0.11  -0.30   0.00    -0.01   0.01   0.00
    51   1     0.09  -0.15   0.00     0.24  -0.22   0.00     0.17  -0.15   0.00
    52   1     0.16   0.01   0.00     0.32   0.12  -0.00     0.01  -0.02   0.00
    53   1     0.36   0.09   0.00     0.00   0.05  -0.00     0.22   0.10   0.00
    54   1     0.08   0.36  -0.00    -0.04   0.05  -0.00     0.09   0.22   0.00
    55   1     0.02   0.20   0.00    -0.11  -0.30  -0.00    -0.01   0.01   0.00
    56   1    -0.19   0.12  -0.00     0.20  -0.22   0.00    -0.15   0.17   0.00
    57   1     0.09  -0.15  -0.00     0.24  -0.22  -0.00     0.17  -0.15  -0.00
    58   1     0.16   0.01   0.00     0.32   0.12   0.00     0.01  -0.02   0.00
    59   1     0.36   0.09  -0.00     0.00   0.05   0.00     0.22   0.10   0.00
    60   1     0.08   0.36   0.00    -0.04   0.05   0.00     0.09   0.22   0.00
                    124                    125                    126
                      A                      A                      A
 Frequencies --   1330.5735              1345.3201              1345.6558
 Red. masses --      7.5444                 8.3702                 5.6715
 Frc consts  --      7.8696                 8.9256                 6.0509
 IR Inten    --     15.3219                 0.0000                 0.0000
  Atom  AN      X      Y      Z        X      Y      Z        X      Y      Z
     1   6    -0.06  -0.07  -0.00    -0.00  -0.21   0.00    -0.07  -0.06  -0.00
     2   6     0.08   0.04   0.00     0.06   0.05  -0.00    -0.07   0.03  -0.00
     3   6    -0.01  -0.00  -0.00    -0.02   0.07  -0.00    -0.04   0.02  -0.00
     4   6    -0.00  -0.04   0.00     0.05   0.06  -0.00    -0.01   0.05  -0.00
     5   6     0.07  -0.04   0.00    -0.18  -0.10   0.00    -0.09   0.03  -0.00
     6   6     0.03  -0.13   0.00     0.07  -0.02  -0.00    -0.01   0.08  -0.00
     7   6     0.16  -0.03  -0.00     0.10  -0.18   0.00    -0.10   0.02   0.00
     8   6     0.01   0.09  -0.00    -0.08   0.01  -0.00    -0.04  -0.06   0.00
     9   6     0.03   0.04  -0.00    -0.02   0.07  -0.00    -0.03  -0.04   0.00
    10   6     0.00   0.02  -0.00    -0.07   0.02  -0.00     0.02  -0.05   0.00
    11   6     0.07   0.07  -0.00     0.20   0.00   0.00    -0.07  -0.07   0.00
    12   6    -0.04  -0.07   0.00    -0.04  -0.06  -0.00     0.03  -0.07   0.00
    13   7    -0.11  -0.04  -0.00     0.02  -0.04   0.00     0.14   0.04   0.00
    14   7    -0.07  -0.05   0.00    -0.01   0.04  -0.00     0.09   0.03   0.00
    15   7    -0.11   0.11   0.00     0.03   0.03  -0.00     0.07  -0.07  -0.00
    16   7     0.05   0.06   0.00    -0.04   0.01  -0.00     0.02   0.09   0.00
    17   7    -0.17   0.16   0.00    -0.03  -0.04   0.00     0.10  -0.10  -0.00
    18   7     0.04   0.11   0.00     0.04  -0.01   0.00     0.03   0.14   0.00
    19   6    -0.09  -0.01   0.00     0.01  -0.07  -0.00     0.06   0.05  -0.00
    20   6    -0.04  -0.03   0.00     0.08  -0.02  -0.00     0.04   0.03  -0.00
    21   6     0.03  -0.16   0.00    -0.18   0.11   0.00    -0.01   0.09  -0.00
    22   6     0.13  -0.03  -0.00    -0.03   0.07  -0.00    -0.08   0.01   0.00
    23   6     0.04   0.00  -0.00     0.05   0.05  -0.00    -0.05   0.00   0.00
    24   6     0.04  -0.06  -0.00    -0.10  -0.18   0.00    -0.03   0.10   0.00
    25   7     0.04   0.11   0.00    -0.04   0.01   0.00    -0.03  -0.14  -0.00
    26   7     0.05   0.06  -0.00     0.04  -0.01  -0.00    -0.02  -0.09  -0.00
    27   6    -0.09  -0.01  -0.00    -0.01   0.07  -0.00    -0.06  -0.05  -0.00
    28   6    -0.04  -0.03  -0.00    -0.08   0.02  -0.00    -0.04  -0.03  -0.00
    29   6     0.03  -0.16  -0.00     0.18  -0.11   0.00     0.01  -0.09  -0.00
    30   6     0.13  -0.03   0.00     0.03  -0.07  -0.00     0.08  -0.01   0.00
    31   6     0.04   0.00   0.00    -0.05  -0.05  -0.00     0.05  -0.00   0.00
    32   6     0.04  -0.06   0.00     0.10   0.18   0.00     0.03  -0.10   0.00
    33   7    -0.17   0.16   0.00     0.03   0.04   0.00    -0.10   0.10   0.00
    34   7    -0.11   0.11   0.00    -0.03  -0.03  -0.00    -0.07   0.07   0.00
    35   6    -0.00  -0.04  -0.00    -0.05  -0.06  -0.00     0.01  -0.05  -0.00
    36   6     0.07  -0.04  -0.00     0.18   0.10   0.00     0.09  -0.03  -0.00
    37   6     0.03  -0.13  -0.00    -0.07   0.02  -0.00     0.01  -0.08  -0.00
    38   6    -0.06  -0.07   0.00     0.00   0.21   0.00     0.07   0.06  -0.00
    39   6     0.08   0.04  -0.00    -0.06  -0.05  -0.00     0.07  -0.03  -0.00
    40   6    -0.01  -0.00   0.00     0.02  -0.07  -0.00     0.04  -0.02  -0.00
    41   6     0.00   0.02   0.00     0.07  -0.02  -0.00    -0.02   0.05   0.00
    42   6     0.07   0.07   0.00    -0.20  -0.00   0.00     0.07   0.07   0.00
    43   6    -0.04  -0.07  -0.00     0.04   0.06   0.00    -0.03   0.07   0.00
    44   6     0.16  -0.03   0.00    -0.10   0.18   0.00     0.10  -0.02   0.00
    45   6     0.01   0.09   0.00     0.08  -0.01  -0.00     0.04   0.06   0.00
    46   6     0.03   0.04   0.00     0.02  -0.07  -0.00     0.03   0.04   0.00
    47   7    -0.07  -0.05  -0.00     0.01  -0.04  -0.00    -0.09  -0.03   0.00
    48   7    -0.11  -0.04  -0.00    -0.02   0.04   0.00    -0.14  -0.04  -0.00
    49   1    -0.08   0.12   0.00     0.17  -0.03  -0.00     0.14  -0.17  -0.00
    50   1     0.04   0.27  -0.00     0.13   0.10  -0.00    -0.03  -0.23   0.00
    51   1    -0.12   0.08  -0.00    -0.03   0.16  -0.00     0.18  -0.14   0.00
    52   1    -0.27  -0.05   0.00     0.11   0.13  -0.00     0.22   0.03  -0.00
    53   1     0.12   0.03   0.00    -0.15   0.06  -0.00     0.21   0.08   0.00
    54   1    -0.03  -0.13   0.00    -0.06   0.16  -0.00     0.08   0.20  -0.00
    55   1     0.04   0.27   0.00    -0.13  -0.10  -0.00     0.03   0.23   0.00
    56   1    -0.08   0.12   0.00    -0.17   0.03  -0.00    -0.14   0.17  -0.00
    57   1    -0.12   0.08   0.00     0.03  -0.16  -0.00    -0.18   0.14   0.00
    58   1    -0.27  -0.05  -0.00    -0.11  -0.13  -0.00    -0.22  -0.03  -0.00
    59   1     0.12   0.03   0.00     0.15  -0.06  -0.00    -0.21  -0.08   0.00
    60   1    -0.03  -0.13  -0.00     0.06  -0.16  -0.00    -0.08  -0.20  -0.00
                    127                    128                    129
                      A                      A                      A
 Frequencies --   1363.8770              1366.0151              1366.1623
 Red. masses --      2.7255                 8.0343                 8.0032
 Frc consts  --      2.9871                 8.8330                 8.8007
 IR Inten    --      0.0000                 0.0000                 0.0000
  Atom  AN      X      Y      Z        X      Y      Z        X      Y      Z
     1   6     0.08  -0.03   0.00     0.16  -0.01   0.00    -0.09   0.16  -0.00
     2   6     0.02  -0.07   0.00    -0.09  -0.00  -0.00     0.03  -0.14   0.00
     3   6    -0.02  -0.02   0.00     0.06  -0.05   0.00     0.07  -0.05   0.00
     4   6    -0.03   0.01   0.00     0.02   0.11  -0.00    -0.01  -0.03   0.00
     5   6     0.01  -0.09   0.00    -0.11  -0.06   0.00     0.02  -0.20   0.00
     6   6    -0.05  -0.05   0.00     0.12   0.05  -0.00     0.01   0.12  -0.00
     7   6     0.05   0.06  -0.00    -0.09  -0.20   0.00     0.09  -0.07  -0.00
     8   6    -0.02   0.07  -0.00     0.03   0.12  -0.00    -0.09   0.07  -0.00
     9   6    -0.03   0.01  -0.00     0.01  -0.01   0.00     0.04   0.10  -0.00
    10   6    -0.02  -0.02  -0.00    -0.07   0.07  -0.00     0.03  -0.04   0.00
    11   6    -0.04   0.08  -0.00     0.03   0.12  -0.00    -0.16   0.12  -0.00
    12   6    -0.07   0.02  -0.00    -0.04  -0.08  -0.00     0.14  -0.06   0.00
    13   7     0.01   0.00   0.00     0.03  -0.06   0.00     0.02   0.03  -0.00
    14   7     0.02   0.00  -0.00     0.02  -0.06   0.00    -0.01   0.02  -0.00
    15   7     0.01  -0.01  -0.00     0.01   0.01  -0.00    -0.05  -0.05   0.00
    16   7     0.00   0.02  -0.00    -0.05   0.01  -0.00    -0.04   0.01  -0.00
    17   7     0.00  -0.01  -0.00    -0.02   0.03   0.00    -0.05  -0.04   0.00
    18   7     0.00   0.01   0.00    -0.05   0.03  -0.00    -0.05  -0.02  -0.00
    19   6    -0.07   0.01   0.00    -0.14  -0.01   0.00     0.04  -0.09  -0.00
    20   6    -0.01   0.03   0.00    -0.03  -0.02   0.00     0.10   0.03  -0.00
    21   6    -0.06  -0.05   0.00     0.20   0.07  -0.00    -0.00   0.12  -0.00
    22   6     0.05   0.05  -0.00    -0.08  -0.12   0.00     0.09  -0.03  -0.00
    23   6    -0.01   0.03   0.00    -0.09  -0.02   0.00    -0.06  -0.02   0.00
    24   6     0.08  -0.01  -0.00     0.11   0.11  -0.00    -0.18   0.04   0.00
    25   7    -0.00  -0.01   0.00     0.05  -0.03  -0.00     0.05   0.02  -0.00
    26   7    -0.00  -0.02  -0.00     0.05  -0.01  -0.00     0.04  -0.01  -0.00
    27   6     0.07  -0.01   0.00     0.14   0.01   0.00    -0.04   0.09  -0.00
    28   6     0.01  -0.03  -0.00     0.03   0.02   0.00    -0.10  -0.03  -0.00
    29   6     0.06   0.05   0.00    -0.20  -0.07  -0.00     0.00  -0.12  -0.00
    30   6    -0.05  -0.05  -0.00     0.08   0.12   0.00    -0.09   0.03  -0.00
    31   6     0.01  -0.03  -0.00     0.09   0.02   0.00     0.06   0.02   0.00
    32   6    -0.08   0.01  -0.00    -0.11  -0.11  -0.00     0.18  -0.04   0.00
    33   7    -0.00   0.01   0.00     0.02  -0.03  -0.00     0.05   0.04   0.00
    34   7    -0.01   0.01   0.00    -0.01  -0.01  -0.00     0.05   0.05   0.00
    35   6     0.03  -0.01  -0.00    -0.02  -0.11  -0.00     0.01   0.03   0.00
    36   6    -0.01   0.09   0.00     0.11   0.06   0.00    -0.02   0.20   0.00
    37   6     0.05   0.05   0.00    -0.12  -0.05  -0.00    -0.01  -0.12  -0.00
    38   6    -0.08   0.03   0.00    -0.16   0.01   0.00     0.09  -0.16  -0.00
    39   6    -0.02   0.07   0.00     0.09   0.00  -0.00    -0.03   0.14   0.00
    40   6     0.02   0.02   0.00    -0.06   0.05   0.00    -0.07   0.05   0.00
    41   6     0.02   0.02   0.00     0.07  -0.07  -0.00    -0.03   0.04   0.00
    42   6     0.04  -0.08  -0.00    -0.03  -0.12  -0.00     0.16  -0.12  -0.00
    43   6     0.07  -0.02  -0.00     0.04   0.08   0.00    -0.14   0.06   0.00
    44   6    -0.05  -0.06  -0.00     0.09   0.20   0.00    -0.09   0.07   0.00
    45   6     0.02  -0.07  -0.00    -0.03  -0.12  -0.00     0.09  -0.07  -0.00
    46   6     0.03  -0.01  -0.00    -0.01   0.01   0.00    -0.04  -0.10  -0.00
    47   7    -0.02  -0.00  -0.00    -0.02   0.06   0.00     0.01  -0.02  -0.00
    48   7    -0.01  -0.00   0.00    -0.03   0.06   0.00    -0.02  -0.03  -0.00
    49   1     0.20  -0.17  -0.00    -0.19   0.07   0.00     0.06  -0.13  -0.00
    50   1    -0.08  -0.26   0.00    -0.08  -0.20   0.00     0.09  -0.00  -0.00
    51   1     0.17  -0.19   0.00    -0.03   0.16  -0.00    -0.17   0.13  -0.00
    52   1     0.25   0.09  -0.00     0.19   0.06  -0.00     0.03   0.10  -0.00
    53   1     0.26   0.05   0.00    -0.10  -0.10  -0.00     0.19  -0.02   0.00
    54   1     0.04   0.26  -0.00    -0.09  -0.04  -0.00    -0.01  -0.25   0.00
    55   1     0.08   0.26   0.00     0.08   0.20   0.00    -0.09   0.00  -0.00
    56   1    -0.20   0.17  -0.00     0.19  -0.07   0.00    -0.06   0.13  -0.00
    57   1    -0.17   0.19   0.00     0.03  -0.16  -0.00     0.17  -0.13  -0.00
    58   1    -0.25  -0.09  -0.00    -0.19  -0.06  -0.00    -0.03  -0.10  -0.00
    59   1    -0.26  -0.05   0.00     0.10   0.10   0.00    -0.19   0.02   0.00
    60   1    -0.04  -0.26  -0.00     0.09   0.04  -0.00     0.01   0.25   0.00
                    130                    131                    132
                      A                      A                      A
 Frequencies --   1370.8997              1371.4627              1392.1445
 Red. masses --      6.0897                 6.1112                 8.8346
 Frc consts  --      6.7431                 6.7725                10.0880
 IR Inten    --    114.6524               114.2650                 0.0090
  Atom  AN      X      Y      Z        X      Y      Z        X      Y      Z
     1   6    -0.11   0.01  -0.00    -0.11   0.17  -0.00    -0.13   0.08  -0.00
     2   6     0.00   0.10  -0.00     0.03  -0.07   0.00     0.00  -0.18   0.00
     3   6    -0.02   0.04  -0.00     0.05  -0.04   0.00     0.06  -0.00   0.00
     4   6     0.00  -0.04   0.00    -0.03  -0.06   0.00    -0.03   0.05  -0.00
     5   6     0.05   0.21  -0.00     0.09   0.01   0.00     0.00  -0.15   0.00
     6   6     0.00  -0.03   0.00    -0.10  -0.07   0.00     0.15   0.09  -0.00
     7   6    -0.06   0.10  -0.00     0.07   0.19  -0.00    -0.07  -0.13   0.00
     8   6     0.05  -0.11   0.00    -0.03   0.01  -0.00    -0.10   0.15  -0.00
     9   6    -0.01  -0.08   0.00    -0.02  -0.01  -0.00     0.05   0.04  -0.00
    10   6     0.03  -0.00   0.00     0.05  -0.05   0.00     0.00  -0.06   0.00
    11   6     0.05  -0.13   0.00    -0.17   0.08  -0.00    -0.08   0.12  -0.00
    12   6     0.08   0.01   0.00     0.09  -0.02   0.00     0.18   0.01   0.00
    13   7    -0.03  -0.01  -0.00     0.01   0.01   0.00     0.02   0.01   0.00
    14   7    -0.04  -0.01  -0.00     0.02   0.01  -0.00    -0.06  -0.01  -0.00
    15   7    -0.00   0.01  -0.00     0.03  -0.03  -0.00     0.04  -0.04  -0.00
    16   7    -0.01  -0.04  -0.00    -0.01  -0.03  -0.00     0.02   0.06   0.00
    17   7     0.00   0.01   0.00     0.02  -0.02  -0.00    -0.01   0.01   0.00
    18   7    -0.00  -0.02   0.00    -0.01  -0.02  -0.00    -0.00  -0.02  -0.00
    19   6    -0.11   0.03   0.00    -0.03   0.04   0.00    -0.15   0.09   0.00
    20   6    -0.08  -0.01   0.00    -0.01   0.02   0.00    -0.03  -0.05   0.00
    21   6     0.15  -0.03  -0.00    -0.16  -0.09   0.00     0.13   0.07  -0.00
    22   6    -0.04  -0.02   0.00     0.06   0.10  -0.00    -0.08  -0.16   0.00
    23   6    -0.05  -0.01   0.00     0.05   0.03  -0.00    -0.06   0.03   0.00
    24   6     0.20   0.08  -0.00     0.04  -0.07  -0.00     0.15   0.01  -0.00
    25   7    -0.00  -0.02   0.00    -0.01  -0.02  -0.00    -0.00  -0.02  -0.00
    26   7    -0.01  -0.04  -0.00    -0.01  -0.03  -0.00     0.02   0.06   0.00
    27   6    -0.11   0.03  -0.00    -0.03   0.04  -0.00    -0.15   0.09  -0.00
    28   6    -0.08  -0.01  -0.00    -0.01   0.02  -0.00    -0.03  -0.05  -0.00
    29   6     0.15  -0.03   0.00    -0.16  -0.09  -0.00     0.13   0.07   0.00
    30   6    -0.04  -0.02  -0.00     0.06   0.10   0.00    -0.08  -0.16  -0.00
    31   6    -0.05  -0.01  -0.00     0.05   0.03   0.00    -0.06   0.03  -0.00
    32   6     0.20   0.08   0.00     0.04  -0.07   0.00     0.15   0.01   0.00
    33   7     0.00   0.01   0.00     0.02  -0.02  -0.00    -0.01   0.01   0.00
    34   7    -0.00   0.01   0.00     0.03  -0.03  -0.00     0.04  -0.04  -0.00
    35   6     0.00  -0.04  -0.00    -0.03  -0.06  -0.00    -0.03   0.05   0.00
    36   6     0.05   0.21   0.00     0.09   0.01  -0.00     0.00  -0.15  -0.00
    37   6     0.00  -0.03  -0.00    -0.10  -0.07  -0.00     0.15   0.09   0.00
    38   6    -0.11   0.01   0.00    -0.11   0.17   0.00    -0.13   0.08   0.00
    39   6     0.00   0.10   0.00     0.03  -0.07  -0.00     0.00  -0.18  -0.00
    40   6    -0.02   0.04   0.00     0.05  -0.04  -0.00     0.06  -0.00  -0.00
    41   6     0.03  -0.00  -0.00     0.05  -0.05  -0.00     0.00  -0.06  -0.00
    42   6     0.05  -0.13  -0.00    -0.17   0.08   0.00    -0.08   0.12   0.00
    43   6     0.08   0.01  -0.00     0.09  -0.02  -0.00     0.18   0.01  -0.00
    44   6    -0.06   0.10   0.00     0.07   0.19   0.00    -0.07  -0.13  -0.00
    45   6     0.05  -0.11  -0.00    -0.03   0.01   0.00    -0.10   0.15   0.00
    46   6    -0.01  -0.08  -0.00    -0.02  -0.01  -0.00     0.05   0.04   0.00
    47   7    -0.04  -0.01  -0.00     0.02   0.01   0.00    -0.06  -0.01   0.00
    48   7    -0.03  -0.01   0.00     0.01   0.01   0.00     0.02   0.01   0.00
    49   1    -0.12   0.05   0.00     0.23  -0.14  -0.00    -0.12   0.09   0.00
    50   1    -0.15  -0.24   0.00    -0.03  -0.09   0.00    -0.06  -0.15   0.00
    51   1     0.02  -0.06   0.00     0.15  -0.25   0.00    -0.10   0.12  -0.00
    52   1    -0.25  -0.16   0.00     0.03  -0.00   0.00     0.14   0.06  -0.00
    53   1    -0.22  -0.01  -0.00     0.20  -0.01   0.00     0.16   0.03   0.00
    54   1    -0.01  -0.17   0.00     0.02  -0.24   0.00    -0.02  -0.15   0.00
    55   1    -0.15  -0.24  -0.00    -0.03  -0.09  -0.00    -0.06  -0.15  -0.00
    56   1    -0.12   0.05  -0.00     0.23  -0.14   0.00    -0.12   0.09  -0.00
    57   1     0.02  -0.06  -0.00     0.15  -0.25  -0.00    -0.10   0.12   0.00
    58   1    -0.25  -0.16  -0.00     0.03  -0.00  -0.00     0.14   0.06   0.00
    59   1    -0.22  -0.01   0.00     0.20  -0.01  -0.00     0.16   0.03  -0.00
    60   1    -0.01  -0.17  -0.00     0.02  -0.24  -0.00    -0.02  -0.15  -0.00
                    133                    134                    135
                      A                      A                      A
 Frequencies --   1394.6139              1427.0746              1427.1561
 Red. masses --      7.5087                 6.4806                 6.5085
 Frc consts  --      8.6045                 7.7761                 7.8104
 IR Inten    --      0.0007                 0.0000                 0.0000
  Atom  AN      X      Y      Z        X      Y      Z        X      Y      Z
     1   6     0.12   0.01   0.00     0.10  -0.03   0.00    -0.07  -0.00  -0.00
     2   6    -0.12   0.01  -0.00    -0.09   0.08  -0.00    -0.12  -0.13   0.00
     3   6     0.08  -0.06   0.00     0.07  -0.05   0.00     0.09   0.00   0.00
     4   6     0.01   0.10  -0.00     0.05  -0.03   0.00    -0.02   0.11  -0.00
     5   6    -0.07   0.10  -0.00    -0.04   0.10  -0.00    -0.00   0.06  -0.00
     6   6     0.05  -0.11   0.00    -0.16  -0.03   0.00     0.06  -0.12   0.00
     7   6    -0.11  -0.06   0.00     0.08   0.06  -0.00    -0.05  -0.06   0.00
     8   6     0.10   0.08  -0.00     0.15  -0.08   0.00     0.08   0.10  -0.00
     9   6    -0.04  -0.09   0.00    -0.07  -0.02   0.00    -0.05  -0.08   0.00
    10   6    -0.06   0.08  -0.00    -0.03   0.11  -0.00    -0.04  -0.02  -0.00
    11   6     0.00   0.13  -0.00    -0.02   0.01  -0.00    -0.02   0.12  -0.00
    12   6     0.02  -0.12   0.00    -0.03  -0.15   0.00     0.15   0.02   0.00
    13   7     0.02  -0.08   0.00     0.02  -0.02   0.00     0.00  -0.04   0.00
    14   7     0.02  -0.08   0.00     0.07  -0.02   0.00    -0.03  -0.06   0.00
    15   7     0.06   0.06  -0.00    -0.07   0.03   0.00     0.02   0.06  -0.00
    16   7    -0.08   0.02  -0.00    -0.06   0.02  -0.00     0.03   0.07   0.00
    17   7     0.06   0.06  -0.00    -0.02  -0.01   0.00     0.03   0.03  -0.00
    18   7    -0.08   0.02  -0.00    -0.04   0.01  -0.00     0.01   0.01   0.00
    19   6     0.07   0.10  -0.00    -0.01  -0.16  -0.00     0.13  -0.05  -0.00
    20   6    -0.09  -0.04   0.00     0.07   0.09  -0.00    -0.04   0.01   0.00
    21   6    -0.05  -0.11   0.00     0.01  -0.02   0.00    -0.08  -0.09   0.00
    22   6    -0.12   0.04   0.00     0.11   0.07  -0.00    -0.07   0.16   0.00
    23   6     0.10   0.01  -0.00    -0.06  -0.02   0.00     0.10  -0.04  -0.00
    24   6     0.11  -0.07  -0.00    -0.11   0.03   0.00    -0.04   0.03   0.00
    25   7    -0.08   0.02   0.00     0.04  -0.01  -0.00    -0.01  -0.01  -0.00
    26   7    -0.08   0.02   0.00     0.06  -0.02  -0.00    -0.03  -0.07  -0.00
    27   6     0.07   0.10   0.00     0.01   0.16   0.00    -0.13   0.05  -0.00
    28   6    -0.09  -0.04  -0.00    -0.07  -0.09  -0.00     0.04  -0.01   0.00
    29   6    -0.05  -0.11  -0.00    -0.01   0.02   0.00     0.08   0.09   0.00
    30   6    -0.12   0.04  -0.00    -0.11  -0.07  -0.00     0.07  -0.16  -0.00
    31   6     0.10   0.01   0.00     0.06   0.02   0.00    -0.10   0.04  -0.00
    32   6     0.11  -0.07   0.00     0.11  -0.03   0.00     0.04  -0.03   0.00
    33   7     0.06   0.06   0.00     0.02   0.01   0.00    -0.03  -0.03  -0.00
    34   7     0.06   0.06   0.00     0.07  -0.03   0.00    -0.02  -0.06  -0.00
    35   6     0.01   0.10   0.00    -0.05   0.03   0.00     0.02  -0.11  -0.00
    36   6    -0.07   0.10   0.00     0.04  -0.10  -0.00     0.00  -0.06  -0.00
    37   6     0.05  -0.11  -0.00     0.16   0.03   0.00    -0.06   0.12   0.00
    38   6     0.12   0.01  -0.00    -0.10   0.03   0.00     0.07   0.00  -0.00
    39   6    -0.12   0.01   0.00     0.09  -0.08  -0.00     0.12   0.13   0.00
    40   6     0.08  -0.06  -0.00    -0.07   0.05   0.00    -0.09  -0.00   0.00
    41   6    -0.06   0.08   0.00     0.03  -0.11  -0.00     0.04   0.02  -0.00
    42   6     0.00   0.13   0.00     0.02  -0.01  -0.00     0.02  -0.12  -0.00
    43   6     0.02  -0.12  -0.00     0.03   0.15   0.00    -0.15  -0.02   0.00
    44   6    -0.11  -0.06  -0.00    -0.08  -0.06  -0.00     0.05   0.06   0.00
    45   6     0.10   0.08   0.00    -0.15   0.08   0.00    -0.08  -0.10  -0.00
    46   6    -0.04  -0.09  -0.00     0.07   0.02   0.00     0.05   0.08   0.00
    47   7     0.02  -0.08  -0.00    -0.07   0.02   0.00     0.03   0.06   0.00
    48   7     0.02  -0.08  -0.00    -0.02   0.02   0.00    -0.00   0.04   0.00
    49   1    -0.07   0.17   0.00     0.15  -0.22  -0.00    -0.05   0.09  -0.00
    50   1    -0.03   0.18  -0.00     0.00  -0.18   0.00     0.01   0.23  -0.00
    51   1     0.17  -0.06  -0.00     0.09  -0.06   0.00     0.23  -0.14   0.00
    52   1     0.19  -0.02  -0.00    -0.04  -0.01   0.00     0.29   0.01  -0.00
    53   1    -0.14  -0.12  -0.00    -0.25  -0.14  -0.00    -0.03  -0.03  -0.00
    54   1    -0.12  -0.15  -0.00    -0.11  -0.20   0.00    -0.08  -0.17   0.00
    55   1    -0.03   0.18   0.00    -0.00   0.18   0.00    -0.01  -0.23  -0.00
    56   1    -0.07   0.17   0.00    -0.15   0.22  -0.00     0.05  -0.09  -0.00
    57   1     0.17  -0.06  -0.00    -0.09   0.06   0.00    -0.23   0.14   0.00
    58   1     0.19  -0.02  -0.00     0.04   0.01   0.00    -0.29  -0.01  -0.00
    59   1    -0.14  -0.12  -0.00     0.25   0.14   0.00     0.03   0.03   0.00
    60   1    -0.12  -0.15  -0.00     0.11   0.20   0.00     0.08   0.17   0.00
                    136                    137                    138
                      A                      A                      A
 Frequencies --   1456.5783              1456.8062              1457.7220
 Red. masses --      4.0717                 4.1066                11.6596
 Frc consts  --      5.0897                 5.1349                14.5976
 IR Inten    --     33.3758                33.3370                 0.0000
  Atom  AN      X      Y      Z        X      Y      Z        X      Y      Z
     1   6     0.03  -0.07   0.00    -0.01  -0.01  -0.00    -0.17  -0.00  -0.00
     2   6    -0.07   0.01  -0.00    -0.09  -0.07  -0.00     0.02  -0.15   0.00
     3   6     0.12  -0.03   0.00     0.03   0.01   0.00     0.12   0.07   0.00
     4   6     0.04  -0.08   0.00    -0.01   0.09  -0.00     0.12  -0.07   0.00
     5   6    -0.04  -0.02   0.00     0.03   0.06  -0.00    -0.09   0.15  -0.00
     6   6    -0.10   0.08  -0.00    -0.03  -0.04   0.00    -0.13  -0.09   0.00
     7   6     0.00   0.05  -0.00     0.02  -0.06   0.00     0.15   0.09  -0.00
     8   6     0.05  -0.04   0.00     0.12   0.03  -0.00     0.07  -0.14   0.00
     9   6     0.02   0.05  -0.00    -0.09  -0.07   0.00    -0.14  -0.00   0.00
    10   6    -0.03   0.12  -0.00    -0.02  -0.02  -0.00    -0.07  -0.12   0.00
    11   6    -0.07   0.02  -0.00    -0.00   0.02  -0.00    -0.00   0.17  -0.00
    12   6     0.01  -0.09   0.00     0.07   0.08   0.00     0.15  -0.01   0.00
    13   7     0.01   0.01   0.00    -0.01   0.00  -0.00     0.02  -0.08   0.00
    14   7     0.08   0.00   0.00    -0.02  -0.04   0.00    -0.02   0.06  -0.00
    15   7    -0.02  -0.03   0.00    -0.06   0.05  -0.00     0.04   0.04  -0.00
    16   7    -0.01   0.07  -0.00     0.04   0.04   0.00    -0.06   0.01  -0.00
    17   7     0.00   0.00  -0.00    -0.01   0.01   0.00    -0.06  -0.06   0.00
    18   7     0.00   0.01   0.00    -0.00   0.01   0.00     0.08  -0.02   0.00
    19   6    -0.04   0.07   0.00    -0.04  -0.11   0.00    -0.14   0.06   0.00
    20   6     0.04   0.01  -0.00     0.08   0.09  -0.00     0.00  -0.14   0.00
    21   6     0.04   0.01  -0.00     0.07  -0.02  -0.00     0.09   0.15  -0.00
    22   6     0.07  -0.11  -0.00     0.05   0.02  -0.00    -0.09  -0.13   0.00
    23   6    -0.06   0.03   0.00    -0.10   0.01   0.00    -0.07   0.12   0.00
    24   6    -0.01  -0.03   0.00    -0.06  -0.04   0.00     0.15  -0.08  -0.00
    25   7     0.00   0.01   0.00    -0.00   0.01   0.00    -0.08   0.02   0.00
    26   7    -0.01   0.07   0.00     0.04   0.04  -0.00     0.06  -0.01  -0.00
    27   6    -0.04   0.07  -0.00    -0.04  -0.11  -0.00     0.14  -0.06   0.00
    28   6     0.04   0.01   0.00     0.08   0.09   0.00    -0.00   0.14   0.00
    29   6     0.04   0.01   0.00     0.07  -0.02   0.00    -0.09  -0.15  -0.00
    30   6     0.07  -0.11   0.00     0.05   0.02   0.00     0.09   0.13   0.00
    31   6    -0.06   0.03  -0.00    -0.10   0.01  -0.00     0.07  -0.12  -0.00
    32   6    -0.01  -0.03  -0.00    -0.06  -0.04  -0.00    -0.15   0.08  -0.00
    33   7     0.00   0.00   0.00    -0.01   0.01   0.00     0.06   0.06   0.00
    34   7    -0.02  -0.03  -0.00    -0.06   0.05  -0.00    -0.04  -0.04  -0.00
    35   6     0.04  -0.08  -0.00    -0.01   0.09   0.00    -0.12   0.07   0.00
    36   6    -0.04  -0.02  -0.00     0.03   0.06   0.00     0.09  -0.15  -0.00
    37   6    -0.10   0.08   0.00    -0.03  -0.04  -0.00     0.13   0.09   0.00
    38   6     0.03  -0.07  -0.00    -0.01  -0.01   0.00     0.17   0.00  -0.00
    39   6    -0.07   0.01   0.00    -0.09  -0.07  -0.00    -0.02   0.15   0.00
    40   6     0.12  -0.03  -0.00     0.03   0.01  -0.00    -0.12  -0.07  -0.00
    41   6    -0.03   0.12   0.00    -0.02  -0.02  -0.00     0.07   0.12   0.00
    42   6    -0.07   0.02   0.00    -0.00   0.02   0.00     0.00  -0.17  -0.00
    43   6     0.01  -0.09  -0.00     0.07   0.08   0.00    -0.15   0.01   0.00
    44   6     0.00   0.05   0.00     0.02  -0.06  -0.00    -0.15  -0.09  -0.00
    45   6     0.05  -0.04  -0.00     0.12   0.03   0.00    -0.07   0.14   0.00
    46   6     0.02   0.05   0.00    -0.09  -0.07  -0.00     0.14   0.00   0.00
    47   7     0.08   0.00  -0.00    -0.02  -0.04  -0.00     0.02  -0.06  -0.00
    48   7     0.01   0.01   0.00    -0.01   0.00   0.00    -0.02   0.08   0.00
    49   1     0.10  -0.12  -0.00     0.18  -0.26  -0.00     0.02   0.06   0.00
    50   1     0.00  -0.14   0.00    -0.03  -0.31   0.00     0.04  -0.04  -0.00
    51   1    -0.16   0.12  -0.00     0.24  -0.15   0.00     0.06   0.02   0.00
    52   1    -0.19  -0.01   0.00     0.29   0.04   0.00    -0.04   0.04  -0.00
    53   1    -0.31  -0.15  -0.00    -0.04  -0.00   0.00     0.01   0.06  -0.00
    54   1    -0.14  -0.32   0.00    -0.02  -0.02   0.00    -0.06  -0.01  -0.00
    55   1     0.00  -0.14  -0.00    -0.03  -0.31  -0.00    -0.05   0.04  -0.00
    56   1     0.10  -0.12   0.00     0.18  -0.26   0.00    -0.02  -0.06   0.00
    57   1    -0.16   0.12   0.00     0.24  -0.15  -0.00    -0.06  -0.02   0.00
    58   1    -0.19  -0.01  -0.00     0.29   0.04   0.00     0.04  -0.04  -0.00
    59   1    -0.31  -0.15   0.00    -0.04  -0.00   0.00    -0.01  -0.06   0.00
    60   1    -0.14  -0.32  -0.00    -0.02  -0.02   0.00     0.06   0.01  -0.00
                    139                    140                    141
                      A                      A                      A
 Frequencies --   1471.4131              1476.5265              1476.8075
 Red. masses --      3.9317                 6.5954                 6.5007
 Frc consts  --      5.0154                 8.4717                 8.3533
 IR Inten    --      0.0000                 0.3695                 0.3790
  Atom  AN      X      Y      Z        X      Y      Z        X      Y      Z
     1   6     0.04  -0.07   0.00     0.05   0.04   0.00    -0.14  -0.05  -0.00
     2   6    -0.03  -0.02  -0.00     0.00  -0.07   0.00    -0.03  -0.13   0.00
     3   6     0.10  -0.03   0.00    -0.05   0.01  -0.00     0.12   0.09   0.00
     4   6     0.02  -0.10   0.00     0.11  -0.03   0.00     0.09  -0.07   0.00
     5   6    -0.04  -0.07   0.00    -0.07   0.08  -0.00    -0.11   0.07  -0.00
     6   6    -0.03   0.02  -0.00    -0.15  -0.05   0.00    -0.01   0.01  -0.00
     7   6    -0.01   0.08  -0.00     0.16   0.03  -0.00    -0.02   0.02  -0.00
     8   6    -0.04  -0.00  -0.00     0.08  -0.07   0.00     0.06  -0.09   0.00
     9   6     0.07   0.07  -0.00    -0.16   0.00   0.00    -0.00   0.04  -0.00
    10   6    -0.03   0.10  -0.00    -0.01  -0.08   0.00    -0.09  -0.11   0.00
    11   6    -0.08   0.04  -0.00     0.05   0.08  -0.00     0.04   0.13  -0.00
    12   6    -0.02  -0.03   0.00    -0.04   0.01  -0.00     0.14   0.03   0.00
    13   7     0.02   0.01   0.00     0.04  -0.04   0.00    -0.00  -0.06   0.00
    14   7     0.07   0.02   0.00     0.00   0.03  -0.00    -0.02   0.04  -0.00
    15   7     0.05  -0.05  -0.00     0.03   0.04  -0.00    -0.01   0.00   0.00
    16   7     0.02   0.07   0.00     0.02   0.01   0.00    -0.04   0.02  -0.00
    17   7     0.01  -0.01  -0.00    -0.06  -0.05   0.00    -0.02   0.03   0.00
    18   7     0.00   0.02   0.00    -0.02   0.04  -0.00     0.07  -0.00   0.00
    19   6     0.00   0.04   0.00    -0.05   0.06   0.00     0.11  -0.08  -0.00
    20   6    -0.07  -0.07   0.00    -0.00  -0.15   0.00    -0.04   0.04   0.00
    21   6    -0.08   0.00   0.00     0.02   0.16  -0.00    -0.02  -0.02   0.00
    22   6    -0.02   0.03   0.00    -0.05  -0.14   0.00    -0.00   0.04  -0.00
    23   6     0.10  -0.02  -0.00    -0.01   0.09  -0.00     0.08  -0.11  -0.00
    24   6     0.07   0.05  -0.00     0.06  -0.04  -0.00    -0.09   0.12   0.00
    25   7    -0.00  -0.02  -0.00    -0.02   0.04   0.00     0.07  -0.00  -0.00
    26   7    -0.02  -0.07  -0.00     0.02   0.01  -0.00    -0.04   0.02   0.00
    27   6    -0.00  -0.04  -0.00    -0.05   0.06  -0.00     0.11  -0.08   0.00
    28   6     0.07   0.07   0.00    -0.00  -0.15  -0.00    -0.04   0.04  -0.00
    29   6     0.08  -0.00   0.00     0.02   0.16   0.00    -0.02  -0.02  -0.00
    30   6     0.02  -0.03  -0.00    -0.05  -0.14  -0.00    -0.00   0.04   0.00
    31   6    -0.10   0.02  -0.00    -0.01   0.09   0.00     0.08  -0.11   0.00
    32   6    -0.07  -0.05  -0.00     0.06  -0.04   0.00    -0.09   0.12  -0.00
    33   7    -0.01   0.01   0.00    -0.06  -0.05  -0.00    -0.02   0.03   0.00
    34   7    -0.05   0.05   0.00     0.03   0.04   0.00    -0.01   0.00  -0.00
    35   6    -0.02   0.10   0.00     0.11  -0.03  -0.00     0.09  -0.07  -0.00
    36   6     0.04   0.07   0.00    -0.07   0.08   0.00    -0.11   0.07   0.00
    37   6     0.03  -0.02  -0.00    -0.15  -0.05  -0.00    -0.01   0.01   0.00
    38   6    -0.04   0.07   0.00     0.05   0.04  -0.00    -0.14  -0.05   0.00
    39   6     0.03   0.02  -0.00     0.00  -0.07  -0.00    -0.03  -0.13  -0.00
    40   6    -0.10   0.03   0.00    -0.05   0.01   0.00     0.12   0.09   0.00
    41   6     0.03  -0.10  -0.00    -0.01  -0.08  -0.00    -0.09  -0.11  -0.00
    42   6     0.08  -0.04  -0.00     0.05   0.08   0.00     0.04   0.13   0.00
    43   6     0.02   0.03   0.00    -0.04   0.01   0.00     0.14   0.03  -0.00
    44   6     0.01  -0.08  -0.00     0.16   0.03   0.00    -0.02   0.02   0.00
    45   6     0.04   0.00   0.00     0.08  -0.07  -0.00     0.06  -0.09  -0.00
    46   6    -0.07  -0.07  -0.00    -0.16   0.00  -0.00    -0.00   0.04   0.00
    47   7    -0.07  -0.02   0.00     0.00   0.03   0.00    -0.02   0.04   0.00
    48   7    -0.02  -0.01  -0.00     0.04  -0.04  -0.00    -0.00  -0.06  -0.00
    49   1    -0.14   0.21   0.00    -0.06   0.15   0.00    -0.20   0.14   0.00
    50   1     0.01   0.25  -0.00     0.10   0.17  -0.00    -0.00   0.21  -0.00
    51   1    -0.21   0.13  -0.00     0.11  -0.01   0.00    -0.18   0.20  -0.00
    52   1    -0.25  -0.02  -0.00     0.11   0.10  -0.00    -0.25  -0.03  -0.00
    53   1    -0.22  -0.12  -0.00     0.25   0.09   0.00    -0.08   0.05  -0.00
    54   1    -0.11  -0.22   0.00     0.07   0.27  -0.00    -0.07   0.01  -0.00
    55   1    -0.01  -0.25  -0.00     0.10   0.17   0.00    -0.00   0.21   0.00
    56   1     0.14  -0.21   0.00    -0.06   0.15   0.00    -0.20   0.14  -0.00
    57   1     0.21  -0.13  -0.00     0.11  -0.01   0.00    -0.18   0.20   0.00
    58   1     0.25   0.02   0.00     0.11   0.10   0.00    -0.25  -0.03  -0.00
    59   1     0.22   0.12   0.00     0.25   0.09  -0.00    -0.08   0.05   0.00
    60   1     0.11   0.22   0.00     0.07   0.27   0.00    -0.07   0.01   0.00
                    142                    143                    144
                      A                      A                      A
 Frequencies --   1506.1162              1506.2523              1519.2271
 Red. masses --      4.1375                 4.1404                10.2221
 Frc consts  --      5.5297                 5.5346                13.9006
 IR Inten    --      0.0000                 0.0000                 0.0000
  Atom  AN      X      Y      Z        X      Y      Z        X      Y      Z
     1   6    -0.01  -0.04   0.00     0.09   0.11   0.00     0.05  -0.07   0.00
     2   6     0.01   0.07  -0.00     0.01  -0.01   0.00    -0.23  -0.06  -0.00
     3   6     0.03  -0.04   0.00    -0.11  -0.03  -0.00     0.04   0.06   0.00
     4   6    -0.07   0.10  -0.00     0.06  -0.00  -0.00     0.07  -0.01   0.00
     5   6     0.14  -0.01   0.00    -0.04   0.02  -0.00    -0.03  -0.08   0.00
     6   6    -0.03  -0.02   0.00    -0.06  -0.01   0.00    -0.16   0.17  -0.00
     7   6     0.10  -0.05  -0.00     0.10  -0.02  -0.00    -0.01  -0.08   0.00
     8   6    -0.03   0.05  -0.00     0.03  -0.02   0.00     0.22   0.07  -0.00
     9   6    -0.07  -0.06   0.00    -0.10   0.00  -0.00    -0.06   0.03  -0.00
    10   6     0.03   0.11  -0.00     0.04  -0.03   0.00    -0.06  -0.04  -0.00
    11   6    -0.11  -0.09   0.00     0.05   0.01   0.00     0.07  -0.05   0.00
    12   6     0.00  -0.01   0.00    -0.07  -0.01  -0.00     0.05   0.23  -0.00
    13   7    -0.01   0.05  -0.00     0.04  -0.01   0.00    -0.01   0.04  -0.00
    14   7     0.01  -0.03   0.00    -0.01   0.01  -0.00     0.02  -0.06   0.00
    15   7     0.01   0.02  -0.00     0.02   0.01  -0.00    -0.04  -0.04   0.00
    16   7    -0.01   0.01  -0.00     0.03  -0.01   0.00     0.06  -0.02   0.00
    17   7    -0.01  -0.05   0.00    -0.04  -0.01   0.00     0.03   0.03  -0.00
    18   7     0.00  -0.04   0.00    -0.06   0.01  -0.00    -0.04   0.01  -0.00
    19   6    -0.02   0.03   0.00     0.05  -0.03  -0.00     0.06   0.22  -0.00
    20   6     0.00  -0.10   0.00    -0.06  -0.06   0.00     0.03  -0.06  -0.00
    21   6    -0.03   0.10  -0.00    -0.06   0.09   0.00    -0.08  -0.02   0.00
    22   6    -0.01  -0.06   0.00    -0.02  -0.03   0.00     0.17  -0.16  -0.00
    23   6     0.00   0.06  -0.00     0.10  -0.07  -0.00    -0.01   0.07   0.00
    24   6     0.02  -0.03  -0.00    -0.02   0.14   0.00    -0.08  -0.03   0.00
    25   7    -0.00   0.04   0.00     0.06  -0.01  -0.00     0.04  -0.01  -0.00
    26   7     0.01  -0.01  -0.00    -0.03   0.01   0.00    -0.06   0.02   0.00
    27   6     0.02  -0.03   0.00    -0.05   0.03  -0.00    -0.06  -0.22  -0.00
    28   6    -0.00   0.10   0.00     0.06   0.06   0.00    -0.03   0.06   0.00
    29   6     0.03  -0.10  -0.00     0.06  -0.09  -0.00     0.08   0.02   0.00
    30   6     0.01   0.06   0.00     0.02   0.03   0.00    -0.17   0.16  -0.00
    31   6    -0.00  -0.06  -0.00    -0.10   0.07  -0.00     0.01  -0.07  -0.00
    32   6    -0.02   0.03  -0.00     0.02  -0.14   0.00     0.08   0.03   0.00
    33   7     0.01   0.05   0.00     0.04   0.01   0.00    -0.03  -0.03  -0.00
    34   7    -0.01  -0.02  -0.00    -0.02  -0.01  -0.00     0.04   0.04   0.00
    35   6     0.07  -0.10  -0.00    -0.06   0.00  -0.00    -0.07   0.01   0.00
    36   6    -0.14   0.01   0.00     0.04  -0.02  -0.00     0.03   0.08   0.00
    37   6     0.03   0.02   0.00     0.06   0.01   0.00     0.16  -0.17  -0.00
    38   6     0.01   0.04   0.00    -0.09  -0.11   0.00    -0.05   0.07   0.00
    39   6    -0.01  -0.07  -0.00    -0.01   0.01   0.00     0.23   0.06  -0.00
    40   6    -0.03   0.04   0.00     0.11   0.03  -0.00    -0.04  -0.06  -0.00
    41   6    -0.03  -0.11  -0.00    -0.04   0.03   0.00     0.06   0.04   0.00
    42   6     0.11   0.09   0.00    -0.05  -0.01   0.00    -0.07   0.05   0.00
    43   6    -0.00   0.01   0.00     0.07   0.01  -0.00    -0.05  -0.23  -0.00
    44   6    -0.10   0.05   0.00    -0.10   0.02  -0.00     0.01   0.08   0.00
    45   6     0.03  -0.05  -0.00    -0.03   0.02   0.00    -0.22  -0.07  -0.00
    46   6     0.07   0.06   0.00     0.10  -0.00   0.00     0.06  -0.03  -0.00
    47   7    -0.01   0.03   0.00     0.01  -0.01  -0.00    -0.02   0.06   0.00
    48   7     0.01  -0.05  -0.00    -0.04   0.01   0.00     0.01  -0.04  -0.00
    49   1    -0.01   0.08  -0.00    -0.23   0.25   0.00     0.12  -0.04  -0.00
    50   1     0.07   0.12  -0.00     0.04   0.32  -0.00     0.08   0.08  -0.00
    51   1     0.26  -0.22   0.00     0.07   0.01   0.00    -0.04   0.11  -0.00
    52   1     0.32   0.05  -0.00     0.10   0.07  -0.00     0.08   0.08  -0.00
    53   1    -0.18  -0.11  -0.00     0.26   0.06   0.00    -0.12   0.02  -0.00
    54   1    -0.05  -0.25   0.00     0.11   0.20  -0.00    -0.03   0.11  -0.00
    55   1    -0.07  -0.12  -0.00    -0.04  -0.32  -0.00    -0.08  -0.08  -0.00
    56   1     0.01  -0.08  -0.00     0.23  -0.25   0.00    -0.12   0.04  -0.00
    57   1    -0.26   0.22   0.00    -0.07  -0.01  -0.00     0.04  -0.11  -0.00
    58   1    -0.32  -0.05  -0.00    -0.10  -0.07  -0.00    -0.08  -0.08  -0.00
    59   1     0.18   0.11  -0.00    -0.26  -0.06   0.00     0.12  -0.02  -0.00
    60   1     0.05   0.25   0.00    -0.11  -0.20  -0.00     0.03  -0.11  -0.00
                    145                    146                    147
                      A                      A                      A
 Frequencies --   1523.7889              1537.5410              1537.7711
 Red. masses --      3.9409                10.4132                10.3981
 Frc consts  --      5.3913                14.5040                14.4872
 IR Inten    --      0.0029                39.8378                39.5505
  Atom  AN      X      Y      Z        X      Y      Z        X      Y      Z
     1   6    -0.06  -0.10  -0.00    -0.08   0.07  -0.00     0.12  -0.12   0.00
     2   6     0.01   0.04  -0.00    -0.17   0.09  -0.00    -0.20  -0.05  -0.00
     3   6     0.08  -0.00   0.00    -0.08   0.05  -0.00     0.05   0.02   0.00
     4   6    -0.04   0.07  -0.00     0.04   0.02  -0.00     0.02  -0.10   0.00
     5   6     0.12  -0.00   0.00    -0.02  -0.09   0.00    -0.04  -0.17   0.00
     6   6    -0.03  -0.01   0.00    -0.13   0.22  -0.00    -0.07  -0.09   0.00
     7   6     0.10  -0.05  -0.00    -0.03  -0.12   0.00     0.04   0.14  -0.00
     8   6    -0.02   0.03  -0.00     0.21   0.10  -0.00     0.03   0.14  -0.00
     9   6    -0.07  -0.04   0.00    -0.03   0.02  -0.00     0.05   0.08  -0.00
    10   6    -0.00   0.08  -0.00     0.02  -0.09   0.00    -0.05   0.02  -0.00
    11   6    -0.10  -0.07  -0.00     0.14  -0.14   0.00     0.03  -0.02   0.00
    12   6     0.03   0.01   0.00     0.10   0.03   0.00    -0.04   0.26  -0.00
    13   7    -0.01   0.04  -0.00    -0.02   0.05  -0.00    -0.01   0.04  -0.00
    14   7     0.00  -0.02   0.00    -0.03  -0.09   0.00     0.09  -0.03   0.00
    15   7     0.01   0.01  -0.00    -0.03  -0.09   0.00     0.09  -0.03  -0.00
    16   7    -0.02   0.00  -0.00    -0.03  -0.09  -0.00     0.09  -0.04   0.00
    17   7    -0.03  -0.03   0.00     0.04   0.04  -0.00    -0.02  -0.02   0.00
    18   7     0.04  -0.01   0.00     0.01  -0.00   0.00    -0.06   0.02  -0.00
    19   6     0.03  -0.02  -0.00    -0.04   0.12   0.00    -0.17  -0.18   0.00
    20   6    -0.04  -0.07   0.00    -0.05  -0.06   0.00    -0.07  -0.01   0.00
    21   6    -0.06   0.10   0.00    -0.19  -0.06   0.00    -0.01  -0.00   0.00
    22   6    -0.01  -0.03   0.00     0.22  -0.03  -0.00    -0.10   0.13   0.00
    23   6     0.07  -0.04  -0.00     0.08   0.01  -0.00     0.05  -0.04  -0.00
    24   6    -0.01   0.12   0.00     0.07   0.01  -0.00     0.18   0.05  -0.00
    25   7     0.04  -0.01  -0.00     0.01  -0.00  -0.00    -0.06   0.02   0.00
    26   7    -0.02   0.00   0.00    -0.03  -0.09  -0.00     0.09  -0.04  -0.00
    27   6     0.03  -0.02   0.00    -0.04   0.12  -0.00    -0.17  -0.18  -0.00
    28   6    -0.04  -0.07  -0.00    -0.05  -0.06  -0.00    -0.07  -0.01  -0.00
    29   6    -0.06   0.10   0.00    -0.19  -0.06  -0.00    -0.01  -0.00  -0.00
    30   6    -0.01  -0.03  -0.00     0.22  -0.03   0.00    -0.10   0.13  -0.00
    31   6     0.07  -0.04   0.00     0.08   0.01   0.00     0.05  -0.04   0.00
    32   6    -0.01   0.12  -0.00     0.07   0.01   0.00     0.18   0.05   0.00
    33   7    -0.03  -0.03  -0.00     0.04   0.04   0.00    -0.02  -0.02  -0.00
    34   7     0.01   0.01   0.00    -0.03  -0.09  -0.00     0.09  -0.03   0.00
    35   6    -0.04   0.07   0.00     0.04   0.02   0.00     0.02  -0.10  -0.00
    36   6     0.12  -0.00  -0.00    -0.02  -0.09  -0.00    -0.04  -0.17  -0.00
    37   6    -0.03  -0.01  -0.00    -0.13   0.22   0.00    -0.07  -0.09  -0.00
    38   6    -0.06  -0.10  -0.00    -0.08   0.07   0.00     0.12  -0.12  -0.00
    39   6     0.01   0.04   0.00    -0.17   0.09   0.00    -0.20  -0.05   0.00
    40   6     0.08  -0.00  -0.00    -0.08   0.05   0.00     0.05   0.02  -0.00
    41   6    -0.00   0.08   0.00     0.02  -0.09  -0.00    -0.05   0.02   0.00
    42   6    -0.10  -0.07  -0.00     0.14  -0.14  -0.00     0.03  -0.02  -0.00
    43   6     0.03   0.01  -0.00     0.10   0.03  -0.00    -0.04   0.26   0.00
    44   6     0.10  -0.05   0.00    -0.03  -0.12  -0.00     0.04   0.14   0.00
    45   6    -0.02   0.03   0.00     0.21   0.10   0.00     0.03   0.14   0.00
    46   6    -0.07  -0.04  -0.00    -0.03   0.02   0.00     0.05   0.08   0.00
    47   7     0.00  -0.02  -0.00    -0.03  -0.09  -0.00     0.09  -0.03  -0.00
    48   7    -0.01   0.04   0.00    -0.02   0.05   0.00    -0.01   0.04   0.00
    49   1    -0.16   0.19   0.00     0.02   0.08   0.00    -0.10   0.10   0.00
    50   1     0.04   0.25  -0.00     0.01   0.14   0.00    -0.06   0.02   0.00
    51   1     0.19  -0.16   0.00    -0.02   0.08   0.00    -0.13   0.05  -0.00
    52   1     0.24   0.05  -0.00     0.08   0.06   0.00    -0.12   0.03  -0.00
    53   1    -0.23  -0.09  -0.00     0.06   0.09   0.00    -0.12  -0.02  -0.00
    54   1    -0.08  -0.23   0.00     0.07   0.13   0.00    -0.05   0.04  -0.00
    55   1     0.04   0.25   0.00     0.01   0.14   0.00    -0.06   0.02  -0.00
    56   1    -0.16   0.19  -0.00     0.02   0.08   0.00    -0.10   0.10  -0.00
    57   1     0.19  -0.16  -0.00    -0.02   0.08   0.00    -0.13   0.05  -0.00
    58   1     0.24   0.05   0.00     0.08   0.06   0.00    -0.12   0.03   0.00
    59   1    -0.23  -0.09   0.00     0.06   0.09   0.00    -0.12  -0.02   0.00
    60   1    -0.08  -0.23  -0.00     0.07   0.13   0.00    -0.05   0.04   0.00
                    148                    149                    150
                      A                      A                      A
 Frequencies --   1547.6653              1565.0861              1565.2887
 Red. masses --     12.0721                12.1963                12.2088
 Frc consts  --     17.0367                17.6017                17.6243
 IR Inten    --      0.0065                 0.0000                 0.0000
  Atom  AN      X      Y      Z        X      Y      Z        X      Y      Z
     1   6    -0.09  -0.11  -0.00     0.05   0.13   0.00    -0.16   0.00  -0.00
     2   6    -0.16  -0.02  -0.00     0.24  -0.00   0.00     0.01   0.09  -0.00
     3   6     0.00   0.00  -0.00     0.01  -0.00   0.00    -0.03   0.03  -0.00
     4   6    -0.01  -0.00  -0.00     0.01   0.04  -0.00    -0.01  -0.01   0.00
     5   6     0.15  -0.02   0.00    -0.14   0.11  -0.00    -0.08  -0.09   0.00
     6   6     0.10  -0.13   0.00     0.01   0.14  -0.00    -0.14   0.16  -0.00
     7   6    -0.14   0.05   0.00    -0.08  -0.11   0.00     0.16  -0.04  -0.00
     8   6    -0.15  -0.07   0.00     0.13  -0.01   0.00     0.16   0.15  -0.00
     9   6     0.00  -0.00  -0.00    -0.00  -0.03   0.00     0.01   0.03  -0.00
    10   6    -0.00  -0.00  -0.00     0.00  -0.01   0.00     0.03  -0.03   0.00
    11   6     0.11   0.10  -0.00    -0.13  -0.04  -0.00    -0.00  -0.17   0.00
    12   6     0.02   0.16  -0.00     0.00  -0.23   0.00     0.09  -0.01   0.00
    13   7    -0.16  -0.05  -0.00     0.15   0.01   0.00     0.08   0.07  -0.00
    14   7     0.18   0.05   0.00    -0.21  -0.03  -0.00    -0.12  -0.08   0.00
    15   7    -0.13   0.13  -0.00    -0.05  -0.03   0.00     0.18  -0.18  -0.00
    16   7    -0.05  -0.18  -0.00     0.03   0.22  -0.00    -0.08  -0.10  -0.00
    17   7     0.12  -0.11  -0.00     0.04   0.03  -0.00    -0.12   0.12   0.00
    18   7     0.04   0.16   0.00    -0.01  -0.16   0.00     0.07   0.07   0.00
    19   6     0.06   0.15  -0.00    -0.00   0.15   0.00    -0.14  -0.15   0.00
    20   6     0.00  -0.00  -0.00    -0.03  -0.00   0.00    -0.03  -0.01   0.00
    21   6    -0.05   0.14  -0.00    -0.11  -0.07   0.00     0.03  -0.16   0.00
    22   6     0.13  -0.09  -0.00     0.15   0.01  -0.00    -0.15   0.14   0.00
    23   6    -0.00   0.01   0.00     0.04   0.01  -0.00     0.01   0.01  -0.00
    24   6     0.03  -0.15  -0.00     0.11  -0.14  -0.00     0.10   0.07  -0.00
    25   7     0.04   0.16   0.00     0.01   0.16   0.00    -0.07  -0.07   0.00
    26   7    -0.05  -0.18  -0.00    -0.03  -0.22  -0.00     0.08   0.10  -0.00
    27   6     0.06   0.15   0.00     0.00  -0.15  -0.00     0.14   0.15   0.00
    28   6     0.00  -0.00  -0.00     0.03   0.00   0.00     0.03   0.01   0.00
    29   6    -0.05   0.14   0.00     0.11   0.07   0.00    -0.03   0.16   0.00
    30   6     0.13  -0.09   0.00    -0.15  -0.01  -0.00     0.15  -0.14   0.00
    31   6    -0.00   0.01  -0.00    -0.04  -0.01  -0.00    -0.01  -0.01  -0.00
    32   6     0.03  -0.15   0.00    -0.11   0.14  -0.00    -0.10  -0.07  -0.00
    33   7     0.12  -0.11  -0.00    -0.04  -0.03  -0.00     0.12  -0.12  -0.00
    34   7    -0.13   0.13   0.00     0.05   0.03   0.00    -0.18   0.18   0.00
    35   6    -0.01  -0.00  -0.00    -0.01  -0.04  -0.00     0.01   0.01   0.00
    36   6     0.15  -0.02  -0.00     0.14  -0.11  -0.00     0.08   0.09   0.00
    37   6     0.10  -0.13  -0.00    -0.01  -0.14  -0.00     0.14  -0.16  -0.00
    38   6    -0.09  -0.11   0.00    -0.05  -0.13  -0.00     0.16  -0.00  -0.00
    39   6    -0.16  -0.02   0.00    -0.24   0.00   0.00    -0.01  -0.09  -0.00
    40   6     0.00   0.00  -0.00    -0.01   0.00   0.00     0.03  -0.03  -0.00
    41   6    -0.00  -0.00  -0.00    -0.00   0.01   0.00    -0.03   0.03   0.00
    42   6     0.11   0.10   0.00     0.13   0.04   0.00     0.00   0.17   0.00
    43   6     0.02   0.16   0.00    -0.00   0.23   0.00    -0.09   0.01   0.00
    44   6    -0.14   0.05  -0.00     0.08   0.11   0.00    -0.16   0.04  -0.00
    45   6    -0.15  -0.07  -0.00    -0.13   0.01   0.00    -0.16  -0.15  -0.00
    46   6     0.00  -0.00  -0.00     0.00   0.03   0.00    -0.01  -0.03  -0.00
    47   7     0.18   0.05  -0.00     0.21   0.03  -0.00     0.12   0.08   0.00
    48   7    -0.16  -0.05  -0.00    -0.15  -0.01   0.00    -0.08  -0.07  -0.00
    49   1    -0.04   0.05   0.00     0.04   0.01  -0.00     0.05  -0.03  -0.00
    50   1    -0.01  -0.07   0.00    -0.04  -0.06   0.00    -0.03   0.01   0.00
    51   1    -0.05   0.04   0.00     0.01   0.05  -0.00     0.04  -0.05  -0.00
    52   1     0.07   0.01   0.00    -0.05  -0.05   0.00    -0.02   0.02  -0.00
    53   1     0.07   0.03   0.00    -0.04  -0.02   0.00    -0.06   0.02  -0.00
    54   1    -0.02  -0.07   0.00     0.02   0.04   0.00     0.03  -0.06   0.00
    55   1    -0.01  -0.07   0.00     0.04   0.06   0.00     0.03  -0.01   0.00
    56   1    -0.04   0.05   0.00    -0.04  -0.01  -0.00    -0.05   0.03  -0.00
    57   1    -0.05   0.04   0.00    -0.01  -0.05  -0.00    -0.04   0.05   0.00
    58   1     0.07   0.01   0.00     0.05   0.05   0.00     0.02  -0.02  -0.00
    59   1     0.07   0.03   0.00     0.04   0.02   0.00     0.06  -0.02  -0.00
    60   1    -0.02  -0.07   0.00    -0.02  -0.04   0.00    -0.03   0.06   0.00
                    151                    152                    153
                      A                      A                      A
 Frequencies --   1583.2614              1583.3707              1598.4848
 Red. masses --     11.0099                11.0253                11.7678
 Frc consts  --     16.2607                16.2856                17.7159
 IR Inten    --      0.0000                 0.0000                 0.1396
  Atom  AN      X      Y      Z        X      Y      Z        X      Y      Z
     1   6     0.11   0.00   0.00    -0.07   0.18  -0.00     0.13  -0.10   0.00
     2   6     0.04  -0.02   0.00    -0.20   0.16  -0.00     0.15  -0.15   0.00
     3   6    -0.01  -0.03   0.00    -0.09   0.02  -0.00     0.06  -0.03   0.00
     4   6     0.04  -0.08   0.00    -0.01  -0.05   0.00    -0.00   0.06  -0.00
     5   6    -0.13  -0.08   0.00    -0.01  -0.15   0.00     0.01   0.16  -0.00
     6   6    -0.03  -0.20   0.00    -0.01  -0.17   0.00     0.06   0.19  -0.00
     7   6     0.05   0.15  -0.00    -0.08   0.12  -0.00    -0.07  -0.15   0.00
     8   6     0.07   0.17  -0.00     0.06   0.17  -0.00    -0.04  -0.20   0.00
     9   6     0.02   0.05  -0.00     0.07   0.05  -0.00    -0.03  -0.05   0.00
    10   6     0.01   0.05  -0.00     0.04  -0.08   0.00    -0.03   0.06  -0.00
    11   6    -0.08  -0.07   0.00     0.16  -0.10   0.00    -0.10   0.13  -0.00
    12   6    -0.05   0.04  -0.00     0.16  -0.20   0.00    -0.16   0.14  -0.00
    13   7     0.12   0.05   0.00    -0.05   0.03  -0.00     0.02  -0.05   0.00
    14   7    -0.08  -0.06   0.00     0.06  -0.09   0.00    -0.04   0.09  -0.00
    15   7     0.09   0.06  -0.00    -0.05   0.08  -0.00    -0.07  -0.06   0.00
    16   7     0.09   0.05   0.00    -0.06   0.08  -0.00     0.09  -0.03   0.00
    17   7    -0.05  -0.01   0.00     0.09  -0.10  -0.00     0.04   0.03  -0.00
    18   7    -0.05  -0.09  -0.00     0.01  -0.10   0.00    -0.05   0.01  -0.00
    19   6     0.22   0.10  -0.00    -0.09  -0.02   0.00    -0.20  -0.05   0.00
    20   6     0.07   0.05  -0.00    -0.02  -0.06   0.00    -0.05  -0.03   0.00
    21   6     0.19   0.02  -0.00    -0.05   0.10   0.00    -0.15  -0.06   0.00
    22   6    -0.25  -0.04   0.00     0.07  -0.00  -0.00     0.21   0.06  -0.00
    23   6    -0.09   0.03   0.00     0.01   0.03  -0.00     0.06  -0.00  -0.00
    24   6    -0.13  -0.13   0.00     0.10  -0.04  -0.00     0.16   0.02  -0.00
    25   7     0.05   0.09  -0.00    -0.01   0.10   0.00    -0.05   0.01   0.00
    26   7    -0.09  -0.05   0.00     0.06  -0.08  -0.00     0.09  -0.02  -0.00
    27   6    -0.22  -0.10  -0.00     0.09   0.02   0.00    -0.20  -0.05  -0.00
    28   6    -0.07  -0.05  -0.00     0.02   0.06   0.00    -0.05  -0.03  -0.00
    29   6    -0.19  -0.02  -0.00     0.05  -0.10  -0.00    -0.15  -0.06  -0.00
    30   6     0.25   0.04   0.00    -0.07   0.00  -0.00     0.21   0.06   0.00
    31   6     0.09  -0.03   0.00    -0.01  -0.03  -0.00     0.06  -0.00   0.00
    32   6     0.13   0.13   0.00    -0.10   0.04  -0.00     0.16   0.02   0.00
    33   7     0.05   0.01   0.00    -0.09   0.10   0.00     0.04   0.03   0.00
    34   7    -0.09  -0.06  -0.00     0.05  -0.08  -0.00    -0.07  -0.06  -0.00
    35   6    -0.04   0.08   0.00     0.01   0.05   0.00    -0.00   0.06   0.00
    36   6     0.13   0.08   0.00     0.01   0.15   0.00     0.01   0.16   0.00
    37   6     0.03   0.20   0.00     0.01   0.17   0.00     0.06   0.19   0.00
    38   6    -0.11  -0.00   0.00     0.07  -0.18  -0.00     0.13  -0.10  -0.00
    39   6    -0.04   0.02   0.00     0.20  -0.16  -0.00     0.15  -0.15  -0.00
    40   6     0.01   0.03   0.00     0.09  -0.02  -0.00     0.06  -0.03  -0.00
    41   6    -0.01  -0.05  -0.00    -0.04   0.08   0.00    -0.03   0.06   0.00
    42   6     0.08   0.07   0.00    -0.16   0.10   0.00    -0.10   0.13   0.00
    43   6     0.05  -0.04  -0.00    -0.16   0.20   0.00    -0.16   0.14   0.00
    44   6    -0.05  -0.15  -0.00     0.08  -0.12  -0.00    -0.07  -0.15  -0.00
    45   6    -0.07  -0.17  -0.00    -0.06  -0.17  -0.00    -0.04  -0.20  -0.00
    46   6    -0.02  -0.05  -0.00    -0.07  -0.05  -0.00    -0.03  -0.05  -0.00
    47   7     0.08   0.06   0.00    -0.06   0.09   0.00    -0.04   0.09   0.00
    48   7    -0.12  -0.05  -0.00     0.05  -0.03  -0.00     0.02  -0.05  -0.00
    49   1     0.05  -0.11   0.00    -0.02   0.06   0.00     0.01   0.05  -0.00
    50   1     0.02  -0.13  -0.00     0.00   0.02   0.00    -0.04   0.04   0.00
    51   1    -0.08   0.04   0.00    -0.10   0.03   0.00     0.05   0.02  -0.00
    52   1    -0.11   0.02  -0.00    -0.07   0.00  -0.00     0.03  -0.04   0.00
    53   1    -0.03  -0.04   0.00     0.10   0.08   0.00    -0.02  -0.05   0.00
    54   1     0.00  -0.01   0.00     0.08   0.11   0.00    -0.05  -0.02  -0.00
    55   1    -0.02   0.13   0.00    -0.00  -0.02   0.00    -0.04   0.04  -0.00
    56   1    -0.05   0.11   0.00     0.02  -0.06  -0.00     0.01   0.05   0.00
    57   1     0.08  -0.04   0.00     0.10  -0.03   0.00     0.05   0.02   0.00
    58   1     0.11  -0.02   0.00     0.07  -0.00   0.00     0.03  -0.04  -0.00
    59   1     0.03   0.04   0.00    -0.10  -0.08  -0.00    -0.02  -0.05  -0.00
    60   1    -0.00   0.01   0.00    -0.08  -0.11  -0.00    -0.05  -0.02   0.00
                    154                    155                    156
                      A                      A                      A
 Frequencies --   1599.3341              1599.6275              1609.1714
 Red. masses --     11.2974                11.2952                11.3651
 Frc consts  --     17.0258                17.0288                17.3391
 IR Inten    --     74.8924                74.8128                 0.0000
  Atom  AN      X      Y      Z        X      Y      Z        X      Y      Z
     1   6     0.09   0.16   0.00    -0.05  -0.07  -0.00    -0.07  -0.12  -0.00
     2   6    -0.20   0.05  -0.00    -0.06  -0.01  -0.00     0.15  -0.04   0.00
     3   6    -0.05  -0.00  -0.00     0.01   0.01   0.00     0.03   0.00   0.00
     4   6    -0.03   0.03  -0.00    -0.02   0.03  -0.00     0.02  -0.03   0.00
     5   6     0.16  -0.00   0.00     0.11   0.02   0.00    -0.14   0.00  -0.00
     6   6     0.01   0.06  -0.00    -0.07   0.21  -0.00     0.05  -0.15   0.00
     7   6     0.03  -0.03   0.00     0.17  -0.10  -0.00    -0.13   0.06   0.00
     8   6    -0.14  -0.13   0.00    -0.08  -0.11   0.00     0.11   0.11  -0.00
     9   6    -0.02  -0.02   0.00    -0.04  -0.02   0.00     0.03   0.01  -0.00
    10   6    -0.00  -0.05   0.00    -0.01  -0.00  -0.00     0.00   0.03  -0.00
    11   6     0.16   0.10   0.00     0.04   0.04  -0.00    -0.12  -0.08  -0.00
    12   6     0.06  -0.19   0.00    -0.01   0.10  -0.00    -0.04   0.15  -0.00
    13   7    -0.18  -0.06  -0.00    -0.09  -0.02  -0.00     0.14   0.04   0.00
    14   7     0.22   0.05   0.00     0.10   0.06  -0.00    -0.17  -0.05  -0.00
    15   7    -0.01  -0.03   0.00     0.18  -0.17  -0.00    -0.13   0.13   0.00
    16   7     0.04   0.20   0.00    -0.05  -0.13  -0.00    -0.04  -0.17  -0.00
    17   7    -0.01   0.01  -0.00    -0.15   0.15   0.00     0.11  -0.10  -0.00
    18   7    -0.05  -0.17  -0.00     0.02   0.12   0.00     0.04   0.14   0.00
    19   6    -0.11  -0.13   0.00     0.11   0.10  -0.00    -0.11  -0.12   0.00
    20   6    -0.01  -0.01   0.00     0.01   0.04  -0.00    -0.01  -0.03   0.00
    21   6    -0.02   0.01   0.00     0.09  -0.17  -0.00    -0.07   0.12   0.00
    22   6     0.03   0.02  -0.00    -0.21   0.06   0.00     0.16  -0.04  -0.00
    23   6     0.02  -0.02  -0.00    -0.03   0.02   0.00     0.03  -0.02  -0.00
    24   6    -0.01   0.15   0.00    -0.00  -0.13  -0.00    -0.01   0.14   0.00
    25   7    -0.05  -0.17  -0.00     0.02   0.12   0.00    -0.04  -0.14  -0.00
    26   7     0.04   0.20   0.00    -0.05  -0.13  -0.00     0.04   0.17   0.00
    27   6    -0.11  -0.13  -0.00     0.11   0.10   0.00     0.11   0.12   0.00
    28   6    -0.01  -0.01  -0.00     0.01   0.04   0.00     0.01   0.03   0.00
    29   6    -0.02   0.01  -0.00     0.09  -0.17  -0.00     0.07  -0.12  -0.00
    30   6     0.03   0.02   0.00    -0.21   0.06  -0.00    -0.16   0.04  -0.00
    31   6     0.02  -0.02   0.00    -0.03   0.02  -0.00    -0.03   0.02  -0.00
    32   6    -0.01   0.15  -0.00    -0.00  -0.13  -0.00     0.01  -0.14   0.00
    33   7    -0.01   0.01  -0.00    -0.15   0.15   0.00    -0.11   0.10   0.00
    34   7    -0.01  -0.03  -0.00     0.18  -0.17  -0.00     0.13  -0.13  -0.00
    35   6    -0.03   0.03   0.00    -0.02   0.03   0.00    -0.02   0.03   0.00
    36   6     0.16  -0.00  -0.00     0.11   0.02   0.00     0.14  -0.00  -0.00
    37   6     0.01   0.06   0.00    -0.07   0.21   0.00    -0.05   0.15   0.00
    38   6     0.09   0.16   0.00    -0.05  -0.07  -0.00     0.07   0.12   0.00
    39   6    -0.20   0.05   0.00    -0.06  -0.01   0.00    -0.15   0.04   0.00
    40   6    -0.05  -0.00   0.00     0.01   0.01  -0.00    -0.03  -0.00   0.00
    41   6    -0.00  -0.05  -0.00    -0.01  -0.00  -0.00    -0.00  -0.03  -0.00
    42   6     0.16   0.10   0.00     0.04   0.04   0.00     0.12   0.08   0.00
    43   6     0.06  -0.19  -0.00    -0.01   0.10   0.00     0.04  -0.15  -0.00
    44   6     0.03  -0.03  -0.00     0.17  -0.10  -0.00     0.13  -0.06   0.00
    45   6    -0.14  -0.13  -0.00    -0.08  -0.11  -0.00    -0.11  -0.11  -0.00
    46   6    -0.02  -0.02  -0.00    -0.04  -0.02  -0.00    -0.03  -0.01  -0.00
    47   7     0.22   0.05  -0.00     0.10   0.06   0.00     0.17   0.05  -0.00
    48   7    -0.18  -0.06  -0.00    -0.09  -0.02  -0.00    -0.14  -0.04  -0.00
    49   1    -0.04   0.03   0.00     0.09  -0.10  -0.00    -0.07   0.07   0.00
    50   1     0.00   0.08  -0.00    -0.03  -0.12   0.00     0.02   0.10   0.00
    51   1     0.05  -0.05  -0.00     0.10  -0.08   0.00    -0.08   0.07   0.00
    52   1     0.09   0.01   0.00     0.11   0.03   0.00    -0.10  -0.02   0.00
    53   1     0.13   0.05   0.00    -0.00   0.01   0.00    -0.09  -0.03  -0.00
    54   1     0.04   0.13  -0.00    -0.02  -0.02   0.00    -0.03  -0.09   0.00
    55   1     0.00   0.08  -0.00    -0.03  -0.12  -0.00    -0.02  -0.10  -0.00
    56   1    -0.04   0.03  -0.00     0.09  -0.10   0.00     0.07  -0.07   0.00
    57   1     0.05  -0.05  -0.00     0.10  -0.08  -0.00     0.08  -0.07  -0.00
    58   1     0.09   0.01  -0.00     0.11   0.03   0.00     0.10   0.02   0.00
    59   1     0.13   0.05  -0.00    -0.00   0.01   0.00     0.09   0.03   0.00
    60   1     0.04   0.13   0.00    -0.02  -0.02   0.00     0.03   0.09   0.00
                    157                    158                    159
                      A                      A                      A
 Frequencies --   1612.5158              1632.0764              1632.1842
 Red. masses --      6.2949                 6.4286                 6.4249
 Frc consts  --      9.6438                10.0890                10.0845
 IR Inten    --      0.0001                 0.0000                 0.0000
  Atom  AN      X      Y      Z        X      Y      Z        X      Y      Z
     1   6    -0.01  -0.00  -0.00     0.06   0.04   0.00    -0.04  -0.03  -0.00
     2   6    -0.02  -0.03   0.00     0.03   0.05  -0.00     0.00   0.05  -0.00
     3   6    -0.15  -0.12  -0.00     0.19   0.15   0.00     0.06   0.04   0.00
     4   6     0.18  -0.07   0.00    -0.17   0.07  -0.00     0.16  -0.06   0.00
     5   6     0.01  -0.01   0.00     0.00  -0.00   0.00     0.08  -0.04   0.00
     6   6     0.03  -0.00  -0.00    -0.07  -0.02   0.00     0.03  -0.02   0.00
     7   6    -0.01  -0.01  -0.00     0.09  -0.00  -0.00    -0.00  -0.00  -0.00
     8   6    -0.03   0.01  -0.00     0.03   0.00   0.00    -0.05   0.05  -0.00
     9   6    -0.19   0.03  -0.00     0.16  -0.02   0.00    -0.20   0.02  -0.00
    10   6     0.12   0.15  -0.00    -0.15  -0.20   0.00    -0.03  -0.03  -0.00
    11   6     0.00   0.01  -0.00    -0.02  -0.04   0.00    -0.04  -0.07   0.00
    12   6     0.03   0.02   0.00    -0.06  -0.03  -0.00     0.02  -0.01   0.00
    13   7     0.05   0.01   0.00    -0.05  -0.00  -0.00     0.00   0.03  -0.00
    14   7     0.01   0.00   0.00    -0.01  -0.01  -0.00     0.01  -0.02   0.00
    15   7    -0.00   0.00   0.00     0.02   0.01  -0.00    -0.00   0.01  -0.00
    16   7    -0.00  -0.01   0.00     0.02   0.00   0.00    -0.01   0.01  -0.00
    17   7    -0.04   0.04   0.00    -0.02  -0.03   0.00    -0.04   0.03   0.00
    18   7    -0.01  -0.05  -0.00    -0.01   0.04  -0.00     0.03   0.02   0.00
    19   6    -0.01   0.03   0.00     0.02   0.01  -0.00    -0.04   0.06   0.00
    20   6    -0.03   0.19   0.00    -0.01   0.06   0.00    -0.04   0.25   0.00
    21   6     0.00   0.01  -0.00    -0.01   0.08  -0.00    -0.00   0.04  -0.00
    22   6     0.00  -0.03   0.00    -0.02  -0.04   0.00     0.01  -0.06   0.00
    23   6     0.07  -0.18  -0.00     0.04  -0.08  -0.00     0.09  -0.22  -0.00
    24   6     0.01  -0.01  -0.00    -0.02   0.04   0.00     0.04  -0.07  -0.00
    25   7    -0.01  -0.05  -0.00     0.01  -0.04  -0.00    -0.03  -0.02   0.00
    26   7    -0.00  -0.01   0.00    -0.02  -0.00   0.00     0.01  -0.01  -0.00
    27   6    -0.01   0.03  -0.00    -0.02  -0.01  -0.00     0.04  -0.06   0.00
    28   6    -0.03   0.19   0.00     0.01  -0.06  -0.00     0.04  -0.25  -0.00
    29   6     0.00   0.01   0.00     0.01  -0.08  -0.00     0.00  -0.04  -0.00
    30   6     0.00  -0.03  -0.00     0.02   0.04   0.00    -0.01   0.06   0.00
    31   6     0.07  -0.18  -0.00    -0.04   0.08   0.00    -0.09   0.22   0.00
    32   6     0.01  -0.01   0.00     0.02  -0.04   0.00    -0.04   0.07  -0.00
    33   7    -0.04   0.04   0.00     0.02   0.03   0.00     0.04  -0.03   0.00
    34   7    -0.00   0.00   0.00    -0.02  -0.01  -0.00     0.00  -0.01  -0.00
    35   6     0.18  -0.07  -0.00     0.17  -0.07  -0.00    -0.16   0.06   0.00
    36   6     0.01  -0.01  -0.00    -0.00   0.00   0.00    -0.08   0.04   0.00
    37   6     0.03  -0.00   0.00     0.07   0.02   0.00    -0.03   0.02   0.00
    38   6    -0.01  -0.00  -0.00    -0.06  -0.04   0.00     0.04   0.03  -0.00
    39   6    -0.02  -0.03  -0.00    -0.03  -0.05  -0.00    -0.00  -0.05  -0.00
    40   6    -0.15  -0.12  -0.00    -0.19  -0.15  -0.00    -0.06  -0.04  -0.00
    41   6     0.12   0.15   0.00     0.15   0.20   0.00     0.03   0.03   0.00
    42   6     0.00   0.01   0.00     0.02   0.04   0.00     0.04   0.07   0.00
    43   6     0.03   0.02  -0.00     0.06   0.03  -0.00    -0.02   0.01   0.00
    44   6    -0.01  -0.01  -0.00    -0.09   0.00  -0.00     0.00   0.00  -0.00
    45   6    -0.03   0.01   0.00    -0.03  -0.00  -0.00     0.05  -0.05  -0.00
    46   6    -0.19   0.03  -0.00    -0.16   0.02  -0.00     0.20  -0.02   0.00
    47   7     0.01   0.00   0.00     0.01   0.01   0.00    -0.01   0.02   0.00
    48   7     0.05   0.01   0.00     0.05   0.00  -0.00    -0.00  -0.03  -0.00
    49   1    -0.20   0.05   0.00    -0.12   0.06   0.00    -0.25   0.07   0.00
    50   1    -0.14  -0.15   0.00    -0.04  -0.01   0.00    -0.19  -0.22   0.00
    51   1    -0.06   0.20  -0.00     0.09  -0.22   0.00    -0.04   0.17  -0.00
    52   1     0.15   0.15  -0.00    -0.10  -0.12   0.00     0.19   0.15  -0.00
    53   1     0.20  -0.05   0.00    -0.26   0.06  -0.00    -0.12  -0.00  -0.00
    54   1     0.06  -0.20   0.00    -0.06   0.28  -0.00    -0.03   0.01   0.00
    55   1    -0.14  -0.15  -0.00     0.04   0.01   0.00     0.19   0.22   0.00
    56   1    -0.20   0.05  -0.00     0.12  -0.06   0.00     0.25  -0.07   0.00
    57   1    -0.06   0.20   0.00    -0.09   0.22   0.00     0.04  -0.17  -0.00
    58   1     0.15   0.15   0.00     0.10   0.12   0.00    -0.19  -0.15  -0.00
    59   1     0.20  -0.05  -0.00     0.26  -0.06  -0.00     0.12   0.00  -0.00
    60   1     0.06  -0.20  -0.00     0.06  -0.28  -0.00     0.03  -0.01   0.00
                    160                    161                    162
                      A                      A                      A
 Frequencies --   1658.6233              1658.6489              1669.8802
 Red. masses --      6.7642                 6.7657                 6.9615
 Frc consts  --     10.9638                10.9666                11.4373
 IR Inten    --      3.2444                 3.2338                 0.0000
  Atom  AN      X      Y      Z        X      Y      Z        X      Y      Z
     1   6     0.06   0.05   0.00     0.07   0.06   0.00    -0.07  -0.06  -0.00
     2   6     0.05   0.09  -0.00     0.02   0.02  -0.00    -0.05  -0.07   0.00
     3   6     0.18   0.14   0.00     0.08   0.06   0.00    -0.14  -0.10  -0.00
     4   6     0.19  -0.07   0.00    -0.13   0.06  -0.00    -0.16   0.07  -0.00
     5   6     0.11  -0.04   0.00    -0.02   0.01  -0.00    -0.09   0.03  -0.00
     6   6     0.07  -0.01  -0.00    -0.07  -0.01   0.00    -0.08   0.01   0.00
     7   6    -0.07   0.01   0.00     0.10  -0.02  -0.00     0.09  -0.01  -0.00
     8   6    -0.08   0.05  -0.00     0.04  -0.01   0.00     0.08  -0.03   0.00
     9   6    -0.21   0.02  -0.00     0.12  -0.02   0.00     0.17  -0.02   0.00
    10   6    -0.13  -0.17   0.00    -0.07  -0.10   0.00     0.10   0.14  -0.00
    11   6    -0.08  -0.09   0.00    -0.00  -0.01   0.00     0.06   0.07  -0.00
    12   6    -0.07  -0.05  -0.00    -0.05  -0.03  -0.00     0.07   0.05   0.00
    13   7    -0.01   0.04  -0.00    -0.02  -0.01  -0.00     0.01  -0.03   0.00
    14   7     0.00  -0.02   0.00    -0.01  -0.00   0.00    -0.00   0.01  -0.00
    15   7    -0.01  -0.00   0.00     0.01   0.01  -0.00     0.01   0.01  -0.00
    16   7     0.01   0.00   0.00     0.01  -0.01   0.00    -0.01   0.00  -0.00
    17   7    -0.00   0.02  -0.00    -0.03  -0.02   0.00    -0.02  -0.02   0.00
    18   7    -0.02   0.02  -0.00    -0.03  -0.00  -0.00     0.03  -0.01   0.00
    19   6    -0.02   0.02   0.00    -0.05   0.09   0.00    -0.04   0.07   0.00
    20   6     0.00   0.03  -0.00    -0.03   0.24   0.00    -0.02   0.17   0.00
    21   6     0.01  -0.04   0.00    -0.02   0.11  -0.00    -0.02   0.09  -0.00
    22   6     0.01   0.01  -0.00     0.01  -0.10   0.00     0.01  -0.08   0.00
    23   6    -0.00  -0.00   0.00     0.10  -0.22  -0.00     0.07  -0.16  -0.00
    24   6     0.02  -0.05  -0.00     0.04  -0.10  -0.00     0.03  -0.09  -0.00
    25   7    -0.02   0.02   0.00    -0.03  -0.00   0.00    -0.03   0.01   0.00
    26   7     0.01   0.00  -0.00     0.01  -0.01  -0.00     0.01  -0.00  -0.00
    27   6    -0.02   0.02  -0.00    -0.05   0.09  -0.00     0.04  -0.07   0.00
    28   6     0.00   0.03   0.00    -0.03   0.24   0.00     0.02  -0.17  -0.00
    29   6     0.01  -0.04  -0.00    -0.02   0.11   0.00     0.02  -0.09  -0.00
    30   6     0.01   0.01   0.00     0.01  -0.10  -0.00    -0.01   0.08   0.00
    31   6    -0.00  -0.00  -0.00     0.10  -0.22  -0.00    -0.07   0.16   0.00
    32   6     0.02  -0.05   0.00     0.04  -0.10   0.00    -0.03   0.09  -0.00
    33   7    -0.00   0.02   0.00    -0.03  -0.02  -0.00     0.02   0.02   0.00
    34   7    -0.01  -0.00  -0.00     0.01   0.01   0.00    -0.01  -0.01  -0.00
    35   6     0.19  -0.07  -0.00    -0.13   0.06   0.00     0.16  -0.07  -0.00
    36   6     0.11  -0.04  -0.00    -0.02   0.01   0.00     0.09  -0.03  -0.00
    37   6     0.07  -0.01   0.00    -0.07  -0.01  -0.00     0.08  -0.01   0.00
    38   6     0.06   0.05  -0.00     0.07   0.06  -0.00     0.07   0.06  -0.00
    39   6     0.05   0.09   0.00     0.02   0.02   0.00     0.05   0.07   0.00
    40   6     0.18   0.14   0.00     0.08   0.06   0.00     0.14   0.10   0.00
    41   6    -0.13  -0.17  -0.00    -0.07  -0.10  -0.00    -0.10  -0.14  -0.00
    42   6    -0.08  -0.09  -0.00    -0.00  -0.01  -0.00    -0.06  -0.07  -0.00
    43   6    -0.07  -0.05   0.00    -0.05  -0.03   0.00    -0.07  -0.05   0.00
    44   6    -0.07   0.01  -0.00     0.10  -0.02   0.00    -0.09   0.01  -0.00
    45   6    -0.08   0.05   0.00     0.04  -0.01  -0.00    -0.08   0.03   0.00
    46   6    -0.21   0.02  -0.00     0.12  -0.02   0.00    -0.17   0.02  -0.00
    47   7     0.00  -0.02  -0.00    -0.01  -0.00   0.00     0.00  -0.01  -0.00
    48   7    -0.01   0.04   0.00    -0.02  -0.01  -0.00    -0.01   0.03   0.00
    49   1     0.01  -0.02  -0.00    -0.27   0.09   0.00    -0.18   0.06   0.00
    50   1    -0.02  -0.05   0.00    -0.18  -0.21   0.00    -0.12  -0.15   0.00
    51   1    -0.07   0.20  -0.00     0.08  -0.17   0.00     0.07  -0.18  -0.00
    52   1     0.20   0.16  -0.00    -0.08  -0.09   0.00    -0.15  -0.13  -0.00
    53   1    -0.26   0.04  -0.00    -0.09   0.03  -0.00     0.19  -0.03   0.00
    54   1    -0.05   0.23  -0.00    -0.02   0.16  -0.00     0.04  -0.19   0.00
    55   1    -0.02  -0.05  -0.00    -0.18  -0.21  -0.00     0.12   0.15   0.00
    56   1     0.01  -0.02  -0.00    -0.27   0.09  -0.00     0.18  -0.06   0.00
    57   1    -0.07   0.20   0.00     0.08  -0.17  -0.00    -0.07   0.18   0.00
    58   1     0.20   0.16   0.00    -0.08  -0.09  -0.00     0.15   0.13   0.00
    59   1    -0.26   0.04   0.00    -0.09   0.03   0.00    -0.19   0.03   0.00
    60   1    -0.05   0.23   0.00    -0.02   0.16   0.00    -0.04   0.19   0.00
                    163                    164                    165
                      A                      A                      A
 Frequencies --   3204.3201              3204.3938              3204.6517
 Red. masses --      1.0875                 1.0876                 1.0876
 Frc consts  --      6.5788                 6.5796                 6.5809
 IR Inten    --      0.0000                 1.6556                 0.0002
  Atom  AN      X      Y      Z        X      Y      Z        X      Y      Z
     1   6    -0.00  -0.00   0.00     0.00   0.00  -0.00    -0.00  -0.00   0.00
     2   6     0.00   0.00  -0.00    -0.00  -0.00   0.00     0.00   0.00  -0.00
     3   6     0.01  -0.04   0.00    -0.01   0.04  -0.00     0.00  -0.02   0.00
     4   6    -0.01  -0.01   0.00     0.00   0.00  -0.00     0.01   0.01  -0.00
     5   6    -0.00  -0.00   0.00    -0.00   0.00  -0.00     0.00   0.00   0.00
     6   6     0.00  -0.00  -0.00    -0.00  -0.00   0.00    -0.00   0.00  -0.00
     7   6    -0.00   0.00   0.00     0.00  -0.00  -0.00     0.00  -0.00   0.00
     8   6     0.00   0.00  -0.00    -0.00  -0.00   0.00    -0.00   0.00  -0.00
     9   6    -0.00   0.01  -0.00     0.00  -0.00   0.00     0.00  -0.01   0.00
    10   6    -0.04   0.01  -0.00     0.04  -0.01   0.00    -0.02   0.00  -0.00
    11   6    -0.00  -0.00  -0.00     0.00   0.00   0.00    -0.00  -0.00   0.00
    12   6     0.00   0.00   0.00    -0.00  -0.00   0.00     0.00  -0.00   0.00
    13   7    -0.00  -0.00  -0.00     0.00   0.00   0.00    -0.00  -0.00  -0.00
    14   7    -0.00  -0.00   0.00     0.00   0.00  -0.00    -0.00  -0.00   0.00
    15   7    -0.00   0.00   0.00     0.00   0.00  -0.00     0.00  -0.00   0.00
    16   7    -0.00  -0.00   0.00     0.00   0.00  -0.00    -0.00   0.00   0.00
    17   7    -0.00   0.00  -0.00    -0.00   0.00   0.00     0.00  -0.00  -0.00
    18   7    -0.00  -0.00  -0.00     0.00   0.00   0.00    -0.00   0.00  -0.00
    19   6    -0.00  -0.00  -0.00    -0.00  -0.00   0.00    -0.00   0.00   0.00
    20   6    -0.01   0.00   0.00    -0.01   0.00   0.00     0.04  -0.01  -0.00
    21   6    -0.00   0.00   0.00    -0.00   0.00  -0.00     0.00  -0.00  -0.00
    22   6    -0.00  -0.00   0.00    -0.00  -0.00   0.00     0.00   0.00  -0.00
    23   6     0.01   0.01  -0.00     0.00   0.00  -0.00    -0.03  -0.03   0.00
    24   6     0.00   0.00  -0.00     0.00  -0.00  -0.00    -0.00  -0.00   0.00
    25   7     0.00   0.00  -0.00     0.00   0.00   0.00     0.00  -0.00  -0.00
    26   7     0.00   0.00   0.00     0.00   0.00  -0.00     0.00  -0.00   0.00
    27   6     0.00   0.00  -0.00    -0.00  -0.00   0.00     0.00  -0.00   0.00
    28   6     0.01  -0.00   0.00    -0.01   0.00  -0.00    -0.04   0.01  -0.00
    29   6     0.00  -0.00   0.00    -0.00   0.00  -0.00    -0.00   0.00   0.00
    30   6     0.00   0.00   0.00    -0.00  -0.00   0.00    -0.00  -0.00  -0.00
    31   6    -0.01  -0.01  -0.00     0.00   0.00   0.00     0.03   0.03   0.00
    32   6    -0.00  -0.00  -0.00     0.00  -0.00   0.00     0.00   0.00   0.00
    33   7     0.00  -0.00  -0.00    -0.00   0.00   0.00    -0.00   0.00  -0.00
    34   7     0.00  -0.00   0.00     0.00   0.00  -0.00    -0.00   0.00   0.00
    35   6     0.01   0.01   0.00     0.00   0.00   0.00    -0.01  -0.01  -0.00
    36   6     0.00   0.00   0.00    -0.00   0.00   0.00    -0.00  -0.00   0.00
    37   6    -0.00   0.00  -0.00    -0.00  -0.00   0.00     0.00  -0.00  -0.00
    38   6     0.00   0.00   0.00     0.00   0.00   0.00     0.00   0.00   0.00
    39   6    -0.00  -0.00  -0.00    -0.00  -0.00   0.00    -0.00  -0.00  -0.00
    40   6    -0.01   0.04   0.00    -0.01   0.04   0.00    -0.00   0.02   0.00
    41   6     0.04  -0.01  -0.00     0.04  -0.01  -0.00     0.02  -0.00  -0.00
    42   6     0.00   0.00  -0.00     0.00   0.00  -0.00     0.00   0.00   0.00
    43   6    -0.00  -0.00   0.00    -0.00  -0.00   0.00    -0.00   0.00  -0.00
    44   6     0.00  -0.00  -0.00     0.00  -0.00  -0.00    -0.00   0.00   0.00
    45   6    -0.00  -0.00  -0.00    -0.00  -0.00   0.00     0.00  -0.00  -0.00
    46   6     0.00  -0.01  -0.00     0.00  -0.00  -0.00    -0.00   0.01   0.00
    47   7     0.00   0.00   0.00     0.00   0.00  -0.00     0.00   0.00   0.00
    48   7     0.00   0.00  -0.00     0.00   0.00   0.00     0.00   0.00  -0.00
    49   1    -0.11  -0.12   0.00    -0.05  -0.05   0.00     0.29   0.31  -0.00
    50   1     0.16  -0.04  -0.00     0.08  -0.02  -0.00    -0.42   0.11   0.00
    51   1     0.08   0.08  -0.00    -0.03  -0.03   0.00    -0.11  -0.11   0.00
    52   1     0.04  -0.12   0.00    -0.01   0.05  -0.00    -0.04   0.14  -0.00
    53   1    -0.12   0.44  -0.00     0.13  -0.47   0.00    -0.05   0.19  -0.00
    54   1     0.44  -0.10   0.00    -0.48   0.11  -0.00     0.19  -0.04   0.00
    55   1    -0.16   0.04  -0.00     0.08  -0.02   0.00     0.43  -0.12   0.00
    56   1     0.11   0.12   0.00    -0.05  -0.05  -0.00    -0.29  -0.31  -0.00
    57   1    -0.08  -0.08  -0.00    -0.03  -0.03  -0.00     0.11   0.11   0.00
    58   1    -0.04   0.12   0.00    -0.01   0.05   0.00     0.04  -0.14  -0.00
    59   1     0.12  -0.44  -0.00     0.13  -0.47  -0.00     0.05  -0.19  -0.00
    60   1    -0.44   0.10   0.00    -0.48   0.11   0.00    -0.19   0.04   0.00
                    166                    167                    168
                      A                      A                      A
 Frequencies --   3204.6609              3204.8279              3204.8282
 Red. masses --      1.0876                 1.0876                 1.0876
 Frc consts  --      6.5808                 6.5818                 6.5818
 IR Inten    --      1.4799                 0.5672                 0.2499
  Atom  AN      X      Y      Z        X      Y      Z        X      Y      Z
     1   6    -0.00  -0.00  -0.00    -0.00  -0.00  -0.00     0.00   0.00  -0.00
     2   6     0.00   0.00   0.00    -0.00   0.00   0.00    -0.00   0.00  -0.00
     3   6     0.00  -0.01   0.00     0.00  -0.01   0.00     0.00  -0.00   0.00
     4   6    -0.01  -0.01   0.00     0.04   0.04  -0.00     0.01   0.01  -0.00
     5   6    -0.00  -0.00  -0.00     0.00   0.00  -0.00     0.00   0.00  -0.00
     6   6     0.00  -0.00   0.00    -0.00  -0.00   0.00    -0.00  -0.00  -0.00
     7   6     0.00   0.00  -0.00     0.00  -0.00  -0.00     0.00  -0.00  -0.00
     8   6     0.00  -0.00   0.00    -0.00   0.00   0.00    -0.00   0.00  -0.00
     9   6    -0.00   0.01  -0.00     0.02  -0.05   0.00     0.00  -0.01   0.00
    10   6    -0.00   0.00  -0.00    -0.01   0.00  -0.00    -0.00   0.00  -0.00
    11   6    -0.00   0.00  -0.00    -0.00  -0.00  -0.00    -0.00  -0.00  -0.00
    12   6     0.00  -0.00   0.00     0.00   0.00   0.00    -0.00   0.00  -0.00
    13   7    -0.00  -0.00   0.00     0.00   0.00   0.00     0.00   0.00   0.00
    14   7    -0.00  -0.00  -0.00     0.00  -0.00  -0.00     0.00  -0.00   0.00
    15   7    -0.00   0.00  -0.00     0.00   0.00  -0.00     0.00   0.00   0.00
    16   7    -0.00   0.00  -0.00    -0.00  -0.00  -0.00     0.00  -0.00   0.00
    17   7    -0.00   0.00   0.00     0.00  -0.00   0.00     0.00  -0.00   0.00
    18   7     0.00   0.00   0.00    -0.00  -0.00   0.00    -0.00  -0.00   0.00
    19   6     0.00  -0.00   0.00     0.00  -0.00   0.00     0.00  -0.00  -0.00
    20   6    -0.04   0.01   0.00    -0.02   0.00   0.00    -0.01   0.00   0.00
    21   6    -0.00   0.00   0.00    -0.00   0.00  -0.00    -0.00   0.00  -0.00
    22   6    -0.00  -0.00   0.00    -0.00  -0.00   0.00    -0.00  -0.00  -0.00
    23   6     0.03   0.03  -0.00     0.01   0.01  -0.00     0.00   0.00  -0.00
    24   6     0.00   0.00  -0.00     0.00   0.00  -0.00     0.00   0.00  -0.00
    25   7     0.00   0.00   0.00     0.00   0.00   0.00     0.00   0.00   0.00
    26   7    -0.00   0.00  -0.00    -0.00   0.00  -0.00     0.00   0.00   0.00
    27   6     0.00  -0.00   0.00     0.00  -0.00   0.00    -0.00   0.00  -0.00
    28   6    -0.04   0.01  -0.00    -0.00   0.00  -0.00     0.02  -0.01   0.00
    29   6    -0.00   0.00  -0.00    -0.00   0.00  -0.00     0.00  -0.00  -0.00
    30   6    -0.00  -0.00   0.00    -0.00  -0.00   0.00     0.00   0.00   0.00
    31   6     0.03   0.03   0.00     0.00   0.00   0.00    -0.01  -0.01  -0.00
    32   6     0.00   0.00   0.00     0.00   0.00  -0.00    -0.00  -0.00  -0.00
    33   7    -0.00   0.00   0.00     0.00  -0.00   0.00    -0.00   0.00   0.00
    34   7    -0.00   0.00  -0.00     0.00  -0.00  -0.00    -0.00  -0.00   0.00
    35   6    -0.01  -0.01  -0.00     0.01   0.01   0.00    -0.04  -0.04  -0.00
    36   6    -0.00  -0.00  -0.00     0.00   0.00  -0.00    -0.00  -0.00  -0.00
    37   6     0.00  -0.00   0.00    -0.00  -0.00   0.00     0.00   0.00   0.00
    38   6    -0.00  -0.00  -0.00    -0.00  -0.00  -0.00     0.00   0.00  -0.00
    39   6     0.00   0.00   0.00    -0.00   0.00   0.00     0.00  -0.00  -0.00
    40   6     0.00  -0.01  -0.00     0.00  -0.00  -0.00    -0.00   0.01   0.00
    41   6    -0.00   0.00   0.00    -0.00   0.00   0.00     0.01  -0.00  -0.00
    42   6    -0.00   0.00  -0.00    -0.00  -0.00  -0.00     0.00   0.00  -0.00
    43   6     0.00  -0.00   0.00     0.00  -0.00   0.00    -0.00  -0.00  -0.00
    44   6     0.00   0.00   0.00     0.00  -0.00  -0.00    -0.00   0.00   0.00
    45   6     0.00  -0.00   0.00    -0.00   0.00   0.00     0.00  -0.00  -0.00
    46   6    -0.00   0.01   0.00     0.00  -0.01  -0.00    -0.02   0.05   0.00
    47   7    -0.00  -0.00  -0.00     0.00  -0.00  -0.00    -0.00   0.00   0.00
    48   7    -0.00  -0.00   0.00     0.00   0.00   0.00    -0.00  -0.00   0.00
    49   1    -0.32  -0.34   0.00    -0.14  -0.15   0.00    -0.05  -0.05   0.00
    50   1     0.47  -0.13  -0.00     0.22  -0.06  -0.00     0.08  -0.02  -0.00
    51   1     0.11   0.11  -0.00    -0.45  -0.45   0.00    -0.08  -0.08   0.00
    52   1     0.04  -0.14   0.00    -0.19   0.63  -0.00    -0.04   0.12  -0.00
    53   1    -0.02   0.06  -0.00    -0.02   0.08  -0.00    -0.00   0.01  -0.00
    54   1     0.05  -0.01   0.00     0.09  -0.02   0.00     0.01  -0.00   0.00
    55   1     0.46  -0.12   0.00     0.02  -0.00   0.00    -0.23   0.06  -0.00
    56   1    -0.31  -0.33  -0.00    -0.01  -0.01  -0.00     0.15   0.16   0.00
    57   1     0.10   0.10   0.00    -0.10  -0.10  -0.00     0.45   0.45   0.00
    58   1     0.04  -0.14  -0.00    -0.04   0.14   0.00     0.19  -0.62  -0.00
    59   1    -0.02   0.06   0.00    -0.01   0.03   0.00     0.02  -0.08  -0.00
    60   1     0.06  -0.01  -0.00     0.02  -0.01  -0.00    -0.09   0.02   0.00
                    169                    170                    171
                      A                      A                      A
 Frequencies --   3219.3912              3219.4122              3219.6860
 Red. masses --      1.0968                 1.0968                 1.0968
 Frc consts  --      6.6975                 6.6977                 6.6987
 IR Inten    --     11.2628                 0.0000                 0.0000
  Atom  AN      X      Y      Z        X      Y      Z        X      Y      Z
     1   6     0.00   0.00  -0.00    -0.00  -0.00   0.00    -0.00  -0.00  -0.00
     2   6    -0.00   0.00  -0.00     0.00  -0.00   0.00     0.00   0.00   0.00
     3   6     0.01  -0.04   0.00    -0.01   0.04  -0.00    -0.00   0.00  -0.00
     4   6     0.01   0.01  -0.00    -0.01  -0.01   0.00    -0.02  -0.02   0.00
     5   6    -0.00  -0.00   0.00     0.00   0.00  -0.00     0.00   0.00  -0.00
     6   6    -0.00  -0.00  -0.00     0.00   0.00   0.00     0.00   0.00   0.00
     7   6     0.00  -0.00   0.00    -0.00   0.00  -0.00    -0.00   0.00  -0.00
     8   6    -0.00   0.00  -0.00     0.00  -0.00  -0.00    -0.00   0.00   0.00
     9   6    -0.00   0.01  -0.00     0.00  -0.01   0.00     0.01  -0.03   0.00
    10   6     0.04  -0.01   0.00    -0.04   0.01  -0.00    -0.00   0.00  -0.00
    11   6    -0.00  -0.00  -0.00     0.00   0.00   0.00     0.00  -0.00  -0.00
    12   6    -0.00   0.00  -0.00     0.00  -0.00   0.00     0.00  -0.00   0.00
    13   7     0.00   0.00  -0.00    -0.00  -0.00   0.00    -0.00  -0.00   0.00
    14   7    -0.00  -0.00   0.00     0.00   0.00   0.00     0.00  -0.00  -0.00
    15   7     0.00  -0.00   0.00    -0.00  -0.00   0.00    -0.00   0.00  -0.00
    16   7     0.00   0.00   0.00    -0.00  -0.00   0.00    -0.00   0.00  -0.00
    17   7    -0.00   0.00  -0.00    -0.00   0.00   0.00     0.00  -0.00   0.00
    18   7    -0.00  -0.00  -0.00     0.00   0.00   0.00    -0.00  -0.00   0.00
    19   6    -0.00   0.00  -0.00    -0.00   0.00  -0.00    -0.00  -0.00   0.00
    20   6    -0.01   0.00   0.00    -0.01   0.00   0.00     0.03  -0.01  -0.00
    21   6     0.00  -0.00  -0.00     0.00  -0.00  -0.00    -0.00   0.00   0.00
    22   6     0.00   0.00  -0.00     0.00   0.00  -0.00    -0.00  -0.00   0.00
    23   6    -0.01  -0.01   0.00    -0.01  -0.01   0.00     0.02   0.03  -0.00
    24   6     0.00   0.00  -0.00     0.00   0.00  -0.00    -0.00  -0.00  -0.00
    25   7    -0.00  -0.00  -0.00    -0.00  -0.00   0.00     0.00   0.00   0.00
    26   7     0.00   0.00   0.00     0.00   0.00   0.00     0.00  -0.00  -0.00
    27   6    -0.00   0.00  -0.00     0.00  -0.00  -0.00     0.00   0.00   0.00
    28   6    -0.01   0.00  -0.00     0.01  -0.00   0.00    -0.03   0.01  -0.00
    29   6     0.00  -0.00   0.00    -0.00   0.00  -0.00     0.00  -0.00   0.00
    30   6     0.00   0.00  -0.00    -0.00  -0.00  -0.00     0.00   0.00   0.00
    31   6    -0.01  -0.01  -0.00     0.01   0.01   0.00    -0.02  -0.03  -0.00
    32   6     0.00   0.00   0.00    -0.00  -0.00  -0.00     0.00   0.00   0.00
    33   7    -0.00   0.00  -0.00     0.00  -0.00   0.00    -0.00   0.00   0.00
    34   7     0.00  -0.00   0.00     0.00   0.00   0.00     0.00  -0.00  -0.00
    35   6     0.01   0.01   0.00     0.01   0.01   0.00     0.02   0.02   0.00
    36   6    -0.00  -0.00  -0.00    -0.00  -0.00  -0.00    -0.00  -0.00  -0.00
    37   6    -0.00  -0.00  -0.00    -0.00  -0.00  -0.00    -0.00  -0.00   0.00
    38   6     0.00   0.00   0.00     0.00   0.00   0.00     0.00   0.00  -0.00
    39   6    -0.00   0.00  -0.00    -0.00   0.00   0.00    -0.00  -0.00   0.00
    40   6     0.01  -0.04  -0.00     0.01  -0.04  -0.00     0.00  -0.00  -0.00
    41   6     0.04  -0.01  -0.00     0.04  -0.01  -0.00     0.00  -0.00  -0.00
    42   6    -0.00  -0.00   0.00    -0.00  -0.00   0.00    -0.00   0.00  -0.00
    43   6    -0.00   0.00   0.00    -0.00   0.00   0.00    -0.00   0.00   0.00
    44   6     0.00  -0.00  -0.00     0.00  -0.00  -0.00     0.00  -0.00  -0.00
    45   6    -0.00   0.00  -0.00    -0.00   0.00  -0.00     0.00  -0.00   0.00
    46   6    -0.00   0.01   0.00    -0.00   0.01   0.00    -0.01   0.03   0.00
    47   7    -0.00  -0.00   0.00    -0.00  -0.00   0.00    -0.00   0.00  -0.00
    48   7     0.00   0.00  -0.00     0.00   0.00   0.00     0.00   0.00   0.00
    49   1     0.10   0.11  -0.00     0.09   0.10  -0.00    -0.27  -0.29   0.00
    50   1     0.14  -0.04  -0.00     0.12  -0.03  -0.00    -0.37   0.10   0.00
    51   1    -0.09  -0.09   0.00     0.07   0.07  -0.00     0.21   0.21  -0.00
    52   1     0.03  -0.11   0.00    -0.03   0.08  -0.00    -0.09   0.28  -0.00
    53   1    -0.12   0.44  -0.00     0.12  -0.46   0.00     0.01  -0.05   0.00
    54   1    -0.45   0.10  -0.00     0.46  -0.10   0.00     0.05  -0.01   0.00
    55   1     0.14  -0.04   0.00    -0.12   0.03  -0.00     0.37  -0.10   0.00
    56   1     0.10   0.11   0.00    -0.09  -0.10  -0.00     0.27   0.29   0.00
    57   1    -0.09  -0.09  -0.00    -0.07  -0.07  -0.00    -0.21  -0.21  -0.00
    58   1     0.03  -0.11  -0.00     0.03  -0.08  -0.00     0.09  -0.28  -0.00
    59   1    -0.12   0.45   0.00    -0.12   0.46   0.00    -0.01   0.05   0.00
    60   1    -0.45   0.10   0.00    -0.46   0.10   0.00    -0.05   0.01   0.00
                    172                    173                    174
                      A                      A                      A
 Frequencies --   3219.7323              3219.9001              3220.0032
 Red. masses --      1.0968                 1.0968                 1.0968
 Frc consts  --      6.6991                 6.6999                 6.7005
 IR Inten    --     29.4111                37.3125                 0.0000
  Atom  AN      X      Y      Z        X      Y      Z        X      Y      Z
     1   6    -0.00  -0.00   0.00     0.00  -0.00  -0.00     0.00   0.00  -0.00
     2   6     0.00  -0.00  -0.00     0.00  -0.00   0.00    -0.00   0.00   0.00
     3   6    -0.00   0.02  -0.00    -0.00   0.00  -0.00     0.00  -0.01   0.00
     4   6     0.01   0.01  -0.00     0.03   0.03  -0.00    -0.03  -0.02   0.00
     5   6    -0.00  -0.00   0.00    -0.00  -0.00  -0.00     0.00   0.00   0.00
     6   6     0.00  -0.00  -0.00    -0.00  -0.00   0.00     0.00   0.00   0.00
     7   6     0.00  -0.00   0.00     0.00  -0.00  -0.00    -0.00   0.00  -0.00
     8   6     0.00  -0.00  -0.00    -0.00  -0.00   0.00     0.00   0.00   0.00
     9   6    -0.01   0.02  -0.00    -0.01   0.04  -0.00     0.01  -0.03   0.00
    10   6    -0.02   0.00  -0.00    -0.00   0.00  -0.00     0.01  -0.00   0.00
    11   6     0.00   0.00   0.00     0.00   0.00  -0.00    -0.00  -0.00  -0.00
    12   6     0.00  -0.00  -0.00    -0.00  -0.00   0.00    -0.00   0.00   0.00
    13   7    -0.00   0.00  -0.00     0.00   0.00   0.00    -0.00  -0.00   0.00
    14   7    -0.00   0.00   0.00    -0.00   0.00  -0.00     0.00  -0.00  -0.00
    15   7    -0.00  -0.00   0.00     0.00   0.00  -0.00    -0.00  -0.00  -0.00
    16   7    -0.00   0.00   0.00     0.00  -0.00  -0.00     0.00  -0.00  -0.00
    17   7    -0.00   0.00  -0.00    -0.00   0.00   0.00     0.00  -0.00   0.00
    18   7    -0.00  -0.00  -0.00     0.00   0.00   0.00     0.00   0.00   0.00
    19   6     0.00  -0.00  -0.00    -0.00  -0.00   0.00     0.00   0.00   0.00
    20   6    -0.04   0.01   0.00     0.02  -0.01  -0.00    -0.02   0.01   0.00
    21   6     0.00  -0.00  -0.00    -0.00   0.00  -0.00     0.00  -0.00  -0.00
    22   6     0.00   0.00  -0.00    -0.00  -0.00   0.00     0.00   0.00   0.00
    23   6    -0.02  -0.03   0.00     0.01   0.02  -0.00    -0.02  -0.02   0.00
    24   6     0.00   0.00   0.00    -0.00  -0.00  -0.00     0.00   0.00  -0.00
    25   7    -0.00  -0.00  -0.00     0.00   0.00   0.00    -0.00  -0.00   0.00
    26   7    -0.00   0.00   0.00     0.00  -0.00  -0.00    -0.00   0.00  -0.00
    27   6     0.00  -0.00  -0.00    -0.00  -0.00   0.00    -0.00  -0.00   0.00
    28   6    -0.04   0.01  -0.00     0.02  -0.01   0.00     0.02  -0.01   0.00
    29   6     0.00  -0.00   0.00    -0.00   0.00  -0.00    -0.00   0.00  -0.00
    30   6     0.00   0.00  -0.00    -0.00  -0.00   0.00    -0.00  -0.00   0.00
    31   6    -0.02  -0.03  -0.00     0.01   0.02   0.00     0.02   0.02   0.00
    32   6     0.00   0.00   0.00    -0.00  -0.00  -0.00    -0.00  -0.00  -0.00
    33   7    -0.00   0.00  -0.00    -0.00   0.00   0.00    -0.00   0.00   0.00
    34   7    -0.00  -0.00   0.00     0.00   0.00  -0.00     0.00   0.00  -0.00
    35   6     0.01   0.01   0.00     0.03   0.03   0.00     0.03   0.02   0.00
    36   6    -0.00  -0.00   0.00    -0.00  -0.00  -0.00    -0.00  -0.00  -0.00
    37   6     0.00  -0.00  -0.00    -0.00  -0.00   0.00    -0.00  -0.00   0.00
    38   6    -0.00  -0.00   0.00     0.00  -0.00  -0.00    -0.00  -0.00  -0.00
    39   6     0.00  -0.00  -0.00     0.00  -0.00   0.00     0.00  -0.00   0.00
    40   6    -0.00   0.02   0.00    -0.00   0.00   0.00    -0.00   0.01   0.00
    41   6    -0.02   0.00   0.00    -0.00   0.00   0.00    -0.01   0.00   0.00
    42   6     0.00   0.00   0.00     0.00   0.00  -0.00     0.00   0.00  -0.00
    43   6     0.00  -0.00  -0.00    -0.00  -0.00   0.00     0.00  -0.00   0.00
    44   6     0.00  -0.00  -0.00     0.00  -0.00  -0.00     0.00  -0.00  -0.00
    45   6     0.00  -0.00  -0.00    -0.00  -0.00   0.00    -0.00  -0.00   0.00
    46   6    -0.01   0.02   0.00    -0.01   0.04   0.00    -0.01   0.03   0.00
    47   7    -0.00   0.00   0.00    -0.00   0.00  -0.00    -0.00   0.00  -0.00
    48   7    -0.00   0.00  -0.00     0.00   0.00   0.00     0.00   0.00   0.00
    49   1     0.29   0.31  -0.00    -0.16  -0.17   0.00     0.19   0.21  -0.00
    50   1     0.40  -0.11  -0.00    -0.21   0.06   0.00     0.26  -0.07  -0.00
    51   1    -0.14  -0.14   0.00    -0.32  -0.31   0.00     0.28   0.28  -0.00
    52   1     0.06  -0.19   0.00     0.13  -0.41   0.00    -0.11   0.37  -0.00
    53   1     0.05  -0.18   0.00     0.01  -0.04   0.00    -0.04   0.14  -0.00
    54   1     0.18  -0.04   0.00     0.04  -0.01   0.00    -0.14   0.03  -0.00
    55   1     0.40  -0.11   0.00    -0.21   0.06  -0.00    -0.26   0.07  -0.00
    56   1     0.29   0.31   0.00    -0.16  -0.17  -0.00    -0.19  -0.21  -0.00
    57   1    -0.14  -0.14  -0.00    -0.32  -0.31  -0.00    -0.28  -0.28  -0.00
    58   1     0.06  -0.19  -0.00     0.13  -0.42  -0.00     0.11  -0.37  -0.00
    59   1     0.05  -0.18  -0.00     0.01  -0.04  -0.00     0.04  -0.14  -0.00
    60   1     0.18  -0.04  -0.00     0.04  -0.01  -0.00     0.14  -0.03  -0.00

 -------------------
 - Thermochemistry -
 -------------------
 Temperature   298.150 Kelvin.  Pressure   1.00000 Atm.
 Atom     1 has atomic number  6 and mass  12.00000
 Atom     2 has atomic number  6 and mass  12.00000
 Atom     3 has atomic number  6 and mass  12.00000
 Atom     4 has atomic number  6 and mass  12.00000
 Atom     5 has atomic number  6 and mass  12.00000
 Atom     6 has atomic number  6 and mass  12.00000
 Atom     7 has atomic number  6 and mass  12.00000
 Atom     8 has atomic number  6 and mass  12.00000
 Atom     9 has atomic number  6 and mass  12.00000
 Atom    10 has atomic number  6 and mass  12.00000
 Atom    11 has atomic number  6 and mass  12.00000
 Atom    12 has atomic number  6 and mass  12.00000
 Atom    13 has atomic number  7 and mass  14.00307
 Atom    14 has atomic number  7 and mass  14.00307
 Atom    15 has atomic number  7 and mass  14.00307
 Atom    16 has atomic number  7 and mass  14.00307
 Atom    17 has atomic number  7 and mass  14.00307
 Atom    18 has atomic number  7 and mass  14.00307
 Atom    19 has atomic number  6 and mass  12.00000
 Atom    20 has atomic number  6 and mass  12.00000
 Atom    21 has atomic number  6 and mass  12.00000
 Atom    22 has atomic number  6 and mass  12.00000
 Atom    23 has atomic number  6 and mass  12.00000
 Atom    24 has atomic number  6 and mass  12.00000
 Atom    25 has atomic number  7 and mass  14.00307
 Atom    26 has atomic number  7 and mass  14.00307
 Atom    27 has atomic number  6 and mass  12.00000
 Atom    28 has atomic number  6 and mass  12.00000
 Atom    29 has atomic number  6 and mass  12.00000
 Atom    30 has atomic number  6 and mass  12.00000
 Atom    31 has atomic number  6 and mass  12.00000
 Atom    32 has atomic number  6 and mass  12.00000
 Atom    33 has atomic number  7 and mass  14.00307
 Atom    34 has atomic number  7 and mass  14.00307
 Atom    35 has atomic number  6 and mass  12.00000
 Atom    36 has atomic number  6 and mass  12.00000
 Atom    37 has atomic number  6 and mass  12.00000
 Atom    38 has atomic number  6 and mass  12.00000
 Atom    39 has atomic number  6 and mass  12.00000
 Atom    40 has atomic number  6 and mass  12.00000
 Atom    41 has atomic number  6 and mass  12.00000
 Atom    42 has atomic number  6 and mass  12.00000
 Atom    43 has atomic number  6 and mass  12.00000
 Atom    44 has atomic number  6 and mass  12.00000
 Atom    45 has atomic number  6 and mass  12.00000
 Atom    46 has atomic number  6 and mass  12.00000
 Atom    47 has atomic number  7 and mass  14.00307
 Atom    48 has atomic number  7 and mass  14.00307
 Atom    49 has atomic number  1 and mass   1.00783
 Atom    50 has atomic number  1 and mass   1.00783
 Atom    51 has atomic number  1 and mass   1.00783
 Atom    52 has atomic number  1 and mass   1.00783
 Atom    53 has atomic number  1 and mass   1.00783
 Atom    54 has atomic number  1 and mass   1.00783
 Atom    55 has atomic number  1 and mass   1.00783
 Atom    56 has atomic number  1 and mass   1.00783
 Atom    57 has atomic number  1 and mass   1.00783
 Atom    58 has atomic number  1 and mass   1.00783
 Atom    59 has atomic number  1 and mass   1.00783
 Atom    60 has atomic number  1 and mass   1.00783
 Molecular mass:   612.13079 amu.
 Principal axes and moments of inertia in atomic units:
                           1         2         3
     Eigenvalues --  ******************************
           X            0.99991  -0.01304  -0.00000
           Y            0.01304   0.99991  -0.00000
           Z            0.00000   0.00000   1.00000
 This molecule is an asymmetric top.
 Rotational symmetry number  1.
 Warning -- assumption of classical behavior for rotation
           may cause significant error
 Rotational temperatures (Kelvin)      0.00333     0.00333     0.00167
 Rotational constants (GHZ):           0.06948     0.06948     0.03474
 Zero-point vibrational energy    1091736.4 (Joules/Mol)
                                  260.93127 (Kcal/Mol)
 Warning -- explicit consideration of  54 degrees of freedom as
           vibrations may cause significant error
 Vibrational temperatures:     55.84    56.39    66.72   107.78   120.62
          (Kelvin)            121.21   153.44   197.57   197.83   209.98
                              211.14   260.77   261.55   321.19   321.35
                              367.25   398.80   399.26   403.34   403.79
                              408.03   420.13   455.57   455.98   527.16
                              527.96   530.47   530.72   539.97   540.29
                              644.59   644.80   658.23   658.77   664.20
                              672.41   672.51   705.37   732.32   738.18
                              775.41   777.79   778.01   795.64   815.86
                              816.00   825.30   825.51   832.03   832.37
                              833.48   870.93   871.35   875.35   894.91
                              899.32   934.44   941.25   941.54   953.45
                              953.56   955.74   955.98  1042.58  1042.65
                             1047.99  1048.33  1068.26  1080.35  1080.37
                             1102.13  1110.31  1156.12  1179.96  1180.09
                             1204.83  1204.85  1216.66  1217.12  1223.87
                             1223.99  1232.68  1232.87  1242.38  1245.41
                             1245.84  1246.82  1247.06  1248.55  1248.66
                             1447.83  1447.96  1448.69  1449.07  1449.53
                             1449.77  1488.17  1488.53  1497.76  1498.26
                             1525.46  1531.89  1597.81  1627.71  1628.01
                             1636.43  1642.78  1643.14  1743.40  1793.70
                             1798.72  1805.58  1806.24  1813.98  1814.10
                             1830.93  1831.14  1839.78  1857.97  1858.23
                             1888.34  1888.64  1913.60  1914.40  1935.61
                             1936.10  1962.31  1965.39  1965.60  1972.42
                             1973.23  2002.98  2006.54  2053.24  2053.36
                             2095.69  2096.02  2097.33  2117.03  2124.39
                             2124.79  2166.96  2167.16  2185.83  2192.39
                             2212.18  2212.51  2226.74  2251.81  2252.10
                             2277.96  2278.11  2299.86  2301.08  2301.50
                             2315.24  2320.05  2348.19  2348.35  2386.39
                             2386.42  2402.58  4610.30  4610.40  4610.77
                             4610.79  4611.03  4611.03  4631.98  4632.01
                             4632.40  4632.47  4632.71  4632.86
 
 Zero-point correction=                           0.415820 (Hartree/Particle)
 Thermal correction to Energy=                    0.444200
 Thermal correction to Enthalpy=                  0.445144
 Thermal correction to Gibbs Free Energy=         0.359897
 Sum of electronic and zero-point Energies=          -2035.757899
 Sum of electronic and thermal Energies=             -2035.729520
 Sum of electronic and thermal Enthalpies=           -2035.728576
 Sum of electronic and thermal Free Energies=        -2035.813822
 
                     E (Thermal)             CV                S
                      KCal/Mol        Cal/Mol-Kelvin    Cal/Mol-Kelvin
 Total                  278.740            124.236            179.416
 Electronic               0.000              0.000              0.000
 Translational            0.889              2.981             45.119
 Rotational               0.889              2.981             38.791
 Vibrational            276.962            118.275             95.507
 Vibration     1          0.594              1.981              5.319
 Vibration     2          0.594              1.981              5.300
 Vibration     3          0.595              1.979              4.966
 Vibration     4          0.599              1.966              4.020
 Vibration     5          0.601              1.960              3.799
 Vibration     6          0.601              1.960              3.789
 Vibration     7          0.606              1.944              3.329
 Vibration     8          0.614              1.916              2.841
 Vibration     9          0.614              1.916              2.838
 Vibration    10          0.617              1.907              2.724
 Vibration    11          0.617              1.906              2.714
 Vibration    12          0.630              1.865              2.316
 Vibration    13          0.630              1.865              2.310
 Vibration    14          0.649              1.806              1.933
 Vibration    15          0.649              1.806              1.932
 Vibration    16          0.666              1.754              1.694
 Vibration    17          0.678              1.716              1.551
 Vibration    18          0.678              1.715              1.549
 Vibration    19          0.680              1.710              1.532
 Vibration    20          0.680              1.709              1.530
 Vibration    21          0.682              1.704              1.512
 Vibration    22          0.687              1.689              1.462
 Vibration    23          0.704              1.642              1.327
 Vibration    24          0.704              1.641              1.326
 Vibration    25          0.739              1.541              1.095
 Vibration    26          0.740              1.540              1.093
 Vibration    27          0.741              1.537              1.085
 Vibration    28          0.741              1.536              1.084
 Vibration    29          0.746              1.523              1.058
 Vibration    30          0.746              1.522              1.057
 Vibration    31          0.807              1.365              0.802
 Vibration    32          0.807              1.365              0.801
 Vibration    33          0.816              1.344              0.773
 Vibration    34          0.816              1.343              0.772
 Vibration    35          0.819              1.335              0.761
 Vibration    36          0.825              1.322              0.745
 Vibration    37          0.825              1.322              0.745
 Vibration    38          0.846              1.272              0.683
 Vibration    39          0.864              1.230              0.636
 Vibration    40          0.868              1.221              0.626
 Vibration    41          0.894              1.164              0.568
 Vibration    42          0.896              1.160              0.564
 Vibration    43          0.896              1.160              0.564
 Vibration    44          0.908              1.133              0.538
 Vibration    45          0.923              1.103              0.510
 Vibration    46          0.923              1.102              0.510
 Vibration    47          0.930              1.088              0.497
 Vibration    48          0.930              1.088              0.497
 Vibration    49          0.935              1.078              0.489
 Vibration    50          0.935              1.078              0.488
 Vibration    51          0.936              1.076              0.487
 Vibration    52          0.964              1.021              0.441
 Vibration    53          0.964              1.020              0.440
 Vibration    54          0.967              1.014              0.435
                       Q            Log10(Q)             Ln(Q)
 Total Bot       0.287777-165       -165.540945       -381.172111
 Total V=0       0.528174D+26         25.722777         59.228882
 Vib (Bot)       0.721389-182       -182.141831       -419.397064
 Vib (Bot)    1  0.533147D+01          0.726847          1.673627
 Vib (Bot)    2  0.527977D+01          0.722615          1.663883
 Vib (Bot)    3  0.445938D+01          0.649274          1.495009
 Vib (Bot)    4  0.275115D+01          0.439514          1.012019
 Vib (Bot)    5  0.245507D+01          0.390064          0.898155
 Vib (Bot)    6  0.244285D+01          0.387898          0.893167
 Vib (Bot)    7  0.192180D+01          0.283707          0.653260
 Vib (Bot)    8  0.148184D+01          0.170802          0.393287
 Vib (Bot)    9  0.147981D+01          0.170207          0.391915
 Vib (Bot)   10  0.139097D+01          0.143317          0.329999
 Vib (Bot)   11  0.138305D+01          0.140837          0.324290
 Vib (Bot)   12  0.110772D+01          0.044430          0.102304
 Vib (Bot)   13  0.110419D+01          0.043045          0.099115
 Vib (Bot)   14  0.884869D+00         -0.053121         -0.122315
 Vib (Bot)   15  0.884366D+00         -0.053368         -0.122884
 Vib (Bot)   16  0.762700D+00         -0.117646         -0.270890
 Vib (Bot)   17  0.694663D+00         -0.158226         -0.364329
 Vib (Bot)   18  0.693754D+00         -0.158794         -0.365637
 Vib (Bot)   19  0.685710D+00         -0.163860         -0.377301
 Vib (Bot)   20  0.684820D+00         -0.164423         -0.378599
 Vib (Bot)   21  0.676652D+00         -0.169635         -0.390598
 Vib (Bot)   22  0.654182D+00         -0.184301         -0.424369
 Vib (Bot)   23  0.594865D+00         -0.225582         -0.519421
 Vib (Bot)   24  0.594231D+00         -0.226044         -0.520486
 Vib (Bot)   25  0.498114D+00         -0.302671         -0.696927
 Vib (Bot)   26  0.497173D+00         -0.303493         -0.698817
 Vib (Bot)   27  0.494231D+00         -0.306070         -0.704752
 Vib (Bot)   28  0.493936D+00         -0.306329         -0.705349
 Vib (Bot)   29  0.483339D+00         -0.315748         -0.727036
 Vib (Bot)   30  0.482987D+00         -0.316065         -0.727766
 Vib (Bot)   31  0.383391D+00         -0.416359         -0.958701
 Vib (Bot)   32  0.383216D+00         -0.416557         -0.959158
 Vib (Bot)   33  0.372553D+00         -0.428812         -0.987377
 Vib (Bot)   34  0.372132D+00         -0.429303         -0.988506
 Vib (Bot)   35  0.367940D+00         -0.434223         -0.999835
 Vib (Bot)   36  0.361722D+00         -0.441625         -1.016880
 Vib (Bot)   37  0.361647D+00         -0.441715         -1.017086
 Vib (Bot)   38  0.338125D+00         -0.470922         -1.084339
 Vib (Bot)   39  0.320316D+00         -0.494422         -1.138448
 Vib (Bot)   40  0.316607D+00         -0.499479         -1.150093
 Vib (Bot)   41  0.294274D+00         -0.531249         -1.223245
 Vib (Bot)   42  0.292913D+00         -0.533261         -1.227880
 Vib (Bot)   43  0.292786D+00         -0.533450         -1.228315
 Vib (Bot)   44  0.282967D+00         -0.548264         -1.262425
 Vib (Bot)   45  0.272203D+00         -0.565106         -1.301205
 Vib (Bot)   46  0.272128D+00         -0.565227         -1.301482
 Vib (Bot)   47  0.267352D+00         -0.572917         -1.319190
 Vib (Bot)   48  0.267246D+00         -0.573089         -1.319585
 Vib (Bot)   49  0.263956D+00         -0.578469         -1.331975
 Vib (Bot)   50  0.263787D+00         -0.578747         -1.332614
 Vib (Bot)   51  0.263233D+00         -0.579660         -1.334717
 Vib (Bot)   52  0.245322D+00         -0.610264         -1.405185
 Vib (Bot)   53  0.245133D+00         -0.610599         -1.405956
 Vib (Bot)   54  0.243309D+00         -0.613842         -1.413423
 Vib (V=0)       0.132401D+10          9.121891         21.003929
 Vib (V=0)    1  0.585487D+01          0.767517          1.767273
 Vib (V=0)    2  0.580340D+01          0.763682          1.758443
 Vib (V=0)    3  0.498732D+01          0.697867          1.606898
 Vib (V=0)    4  0.329622D+01          0.518016          1.192775
 Vib (V=0)    5  0.300547D+01          0.477912          1.100433
 Vib (V=0)    6  0.299350D+01          0.476179          1.096443
 Vib (V=0)    7  0.248577D+01          0.395462          0.910584
 Vib (V=0)    8  0.206392D+01          0.314694          0.724609
 Vib (V=0)    9  0.206200D+01          0.314289          0.723676
 Vib (V=0)   10  0.197810D+01          0.296249          0.682139
 Vib (V=0)   11  0.197065D+01          0.294610          0.678365
 Vib (V=0)   12  0.171534D+01          0.234349          0.539610
 Vib (V=0)   13  0.171212D+01          0.233535          0.537735
 Vib (V=0)   14  0.151636D+01          0.180803          0.416315
 Vib (V=0)   15  0.151592D+01          0.180678          0.416026
 Vib (V=0)   16  0.141198D+01          0.149829          0.344995
 Vib (V=0)   17  0.135590D+01          0.132226          0.304462
 Vib (V=0)   18  0.135516D+01          0.131990          0.303918
 Vib (V=0)   19  0.134864D+01          0.129898          0.299100
 Vib (V=0)   20  0.134793D+01          0.129666          0.298567
 Vib (V=0)   21  0.134134D+01          0.127540          0.293671
 Vib (V=0)   22  0.132338D+01          0.121685          0.280189
 Vib (V=0)   23  0.127709D+01          0.106221          0.244582
 Vib (V=0)   24  0.127660D+01          0.106056          0.244202
 Vib (V=0)   25  0.120577D+01          0.081266          0.187122
 Vib (V=0)   26  0.120511D+01          0.081027          0.186571
 Vib (V=0)   27  0.120304D+01          0.080280          0.184851
 Vib (V=0)   28  0.120283D+01          0.080205          0.184679
 Vib (V=0)   29  0.119543D+01          0.077523          0.178502
 Vib (V=0)   30  0.119518D+01          0.077434          0.178297
 Vib (V=0)   31  0.113007D+01          0.053105          0.122280
 Vib (V=0)   32  0.112996D+01          0.053064          0.122185
 Vib (V=0)   33  0.112353D+01          0.050586          0.116480
 Vib (V=0)   34  0.112328D+01          0.050489          0.116256
 Vib (V=0)   35  0.112079D+01          0.049524          0.114034
 Vib (V=0)   36  0.111712D+01          0.048102          0.110758
 Vib (V=0)   37  0.111708D+01          0.048085          0.110719
 Vib (V=0)   38  0.110360D+01          0.042810          0.098574
 Vib (V=0)   39  0.109380D+01          0.038939          0.089661
 Vib (V=0)   40  0.109181D+01          0.038147          0.087838
 Vib (V=0)   41  0.108017D+01          0.033492          0.077118
 Vib (V=0)   42  0.107948D+01          0.033215          0.076480
 Vib (V=0)   43  0.107942D+01          0.033189          0.076421
 Vib (V=0)   44  0.107452D+01          0.031213          0.071872
 Vib (V=0)   45  0.106929D+01          0.029097          0.066998
 Vib (V=0)   46  0.106926D+01          0.029082          0.066964
 Vib (V=0)   47  0.106699D+01          0.028160          0.064841
 Vib (V=0)   48  0.106694D+01          0.028140          0.064794
 Vib (V=0)   49  0.106540D+01          0.027511          0.063346
 Vib (V=0)   50  0.106532D+01          0.027479          0.063273
 Vib (V=0)   51  0.106506D+01          0.027374          0.063030
 Vib (V=0)   52  0.105694D+01          0.024051          0.055378
 Vib (V=0)   53  0.105686D+01          0.024016          0.055300
 Vib (V=0)   54  0.105606D+01          0.023687          0.054542
 Electronic      0.100000D+01          0.000000          0.000000
 Translational   0.595280D+09          8.774722         20.204543
 Rotational      0.670139D+08          7.826165         18.020410
 ***** Axes restored to original set *****
 -------------------------------------------------------------------
 Center     Atomic                   Forces (Hartrees/Bohr)
 Number     Number              X              Y              Z
 -------------------------------------------------------------------
      1        6          -0.000044800   -0.000066290   -0.000000045
      2        6           0.000005538    0.000037702   -0.000000038
      3        6           0.000042890    0.000064206   -0.000000022
      4        6           0.000149313   -0.000007960    0.000000051
      5        6          -0.000008113   -0.000043614   -0.000000171
      6        6          -0.000032355   -0.000041484    0.000000004
      7        6           0.000032276    0.000075173   -0.000000038
      8        6          -0.000054096   -0.000066507    0.000000010
      9        6          -0.000067030   -0.000012991   -0.000000017
     10        6           0.000002133   -0.000126315    0.000000016
     11        6           0.000081566    0.000038115   -0.000000095
     12        6           0.000013926    0.000013260   -0.000000020
     13        7           0.000026620   -0.000053356    0.000000070
     14        7          -0.000012112    0.000026862    0.000000135
     15        7           0.000016640    0.000161767    0.000000010
     16        7          -0.000096022    0.000103150    0.000000036
     17        7           0.000004943   -0.000113120    0.000000046
     18        7           0.000092735   -0.000073237    0.000000025
     19        6          -0.000083185   -0.000067160    0.000000081
     20        6           0.000041422   -0.000038243    0.000000015
     21        6           0.000051281    0.000046187   -0.000000106
     22        6          -0.000031575   -0.000089560    0.000000121
     23        6          -0.000058482    0.000092032    0.000000051
     24        6           0.000031857   -0.000002855   -0.000000148
     25        7          -0.000092818    0.000073953    0.000000032
     26        7           0.000095950   -0.000102673    0.000000066
     27        6           0.000083115    0.000066798    0.000000024
     28        6          -0.000041508    0.000038635   -0.000000007
     29        6          -0.000051886   -0.000045049   -0.000000028
     30        6           0.000030620    0.000089213    0.000000054
     31        6           0.000058911   -0.000092385    0.000000045
     32        6          -0.000031584    0.000002281   -0.000000105
     33        7          -0.000003495    0.000112613   -0.000000033
     34        7          -0.000015660   -0.000162150    0.000000101
     35        6          -0.000148857    0.000007945    0.000000007
     36        6           0.000009280    0.000043618   -0.000000099
     37        6           0.000032070    0.000042358   -0.000000035
     38        6           0.000044641    0.000065691   -0.000000010
     39        6          -0.000004916   -0.000037867   -0.000000058
     40        6          -0.000043171   -0.000064478   -0.000000031
     41        6          -0.000002184    0.000126647   -0.000000003
     42        6          -0.000081161   -0.000037267   -0.000000022
     43        6          -0.000013656   -0.000013458   -0.000000107
     44        6          -0.000033793   -0.000075671    0.000000051
     45        6           0.000054292    0.000067010   -0.000000041
     46        6           0.000066609    0.000012850   -0.000000023
     47        7           0.000011478   -0.000027204    0.000000168
     48        7          -0.000027641    0.000052769    0.000000001
     49        1           0.000038747   -0.000017614   -0.000000061
     50        1           0.000013933    0.000033176    0.000000016
     51        1          -0.000036424    0.000010396   -0.000000031
     52        1           0.000037430    0.000044504    0.000000063
     53        1          -0.000039756   -0.000011523    0.000000011
     54        1          -0.000002684    0.000045257    0.000000018
     55        1          -0.000013950   -0.000033179    0.000000040
     56        1          -0.000038783    0.000017666   -0.000000054
     57        1           0.000036445   -0.000010395   -0.000000028
     58        1          -0.000037443   -0.000044512    0.000000053
     59        1           0.000039779    0.000011541    0.000000028
     60        1           0.000002702   -0.000045260    0.000000027
 -------------------------------------------------------------------
 Cartesian Forces:  Max     0.000162150 RMS     0.000048823
 FormGI is forming the generalized inverse of G from B-inverse, IUseBI=4.

 GradGradGradGradGradGradGradGradGradGradGradGradGradGradGradGradGradGrad
 Berny optimization.
 Internal  Forces:  Max     0.000100315 RMS     0.000030094
 Search for a local minimum.
 Step number   1 out of a maximum of    2
 All quantities printed in internal units (Hartrees-Bohrs-Radians)
 Second derivative matrix not updated -- analytic derivatives used.
 ITU=  0
     Eigenvalues ---    0.01108   0.01115   0.01147   0.01252   0.01265
     Eigenvalues ---    0.01313   0.01346   0.01452   0.01455   0.01665
     Eigenvalues ---    0.01666   0.01763   0.01866   0.01869   0.01869
     Eigenvalues ---    0.01871   0.01984   0.02018   0.02085   0.02089
     Eigenvalues ---    0.02133   0.02134   0.02142   0.02182   0.02208
     Eigenvalues ---    0.02245   0.02255   0.02258   0.02269   0.02271
     Eigenvalues ---    0.02309   0.02445   0.02446   0.02618   0.02619
     Eigenvalues ---    0.02621   0.02651   0.02677   0.02682   0.02685
     Eigenvalues ---    0.02770   0.02772   0.02780   0.02780   0.02785
     Eigenvalues ---    0.02931   0.02933   0.02965   0.03088   0.03122
     Eigenvalues ---    0.03138   0.03257   0.03332   0.03338   0.03344
     Eigenvalues ---    0.03345   0.03378   0.10634   0.10651   0.10663
     Eigenvalues ---    0.10872   0.10880   0.11016   0.11601   0.11616
     Eigenvalues ---    0.11628   0.11659   0.11666   0.11670   0.17661
     Eigenvalues ---    0.17970   0.17984   0.18234   0.18620   0.18628
     Eigenvalues ---    0.18767   0.18780   0.18951   0.19583   0.19593
     Eigenvalues ---    0.19702   0.20381   0.20392   0.20529   0.21064
     Eigenvalues ---    0.21076   0.21391   0.21398   0.21411   0.21412
     Eigenvalues ---    0.21425   0.21437   0.21460   0.22023   0.22031
     Eigenvalues ---    0.22059   0.22065   0.22119   0.22612   0.22885
     Eigenvalues ---    0.23040   0.23053   0.23285   0.23494   0.23686
     Eigenvalues ---    0.23697   0.24235   0.24256   0.26268   0.26525
     Eigenvalues ---    0.26805   0.26814   0.26861   0.26889   0.29101
     Eigenvalues ---    0.29109   0.30520   0.32964   0.33754   0.33774
     Eigenvalues ---    0.34171   0.34184   0.34511   0.34643   0.34847
     Eigenvalues ---    0.34851   0.35797   0.36442   0.36443   0.36462
     Eigenvalues ---    0.36468   0.36474   0.36510   0.36514   0.36514
     Eigenvalues ---    0.36522   0.36524   0.36529   0.36622   0.37863
     Eigenvalues ---    0.37905   0.38967   0.39270   0.39277   0.39348
     Eigenvalues ---    0.39357   0.41202   0.41451   0.43169   0.43209
     Eigenvalues ---    0.44580   0.44621   0.45309   0.47135   0.47577
     Eigenvalues ---    0.47599   0.51240   0.51600   0.51614   0.51724
     Eigenvalues ---    0.51804   0.51818   0.53455   0.53555   0.53564
     Eigenvalues ---    0.53817   0.53852   0.54174   0.57798   0.57821
     Eigenvalues ---    0.59283   0.59340   0.59346   0.59437
 Angle between quadratic step and forces=  28.79 degrees.
 Linear search not attempted -- first point.
 Iteration  1 RMS(Cart)=  0.00024128 RMS(Int)=  0.00000005
 Iteration  2 RMS(Cart)=  0.00000008 RMS(Int)=  0.00000001
 Variable       Old X    -DE/DX   Delta X   Delta X   Delta X     New X
                                 (Linear)    (Quad)   (Total)
    R1        2.72969  -0.00002   0.00000  -0.00010  -0.00010   2.72959
    R2        2.70323  -0.00001   0.00000  -0.00000  -0.00000   2.70322
    R3        2.54113  -0.00001   0.00000  -0.00007  -0.00007   2.54106
    R4        2.70328  -0.00005   0.00000  -0.00011  -0.00011   2.70317
    R5        2.75399   0.00002   0.00000   0.00007   0.00007   2.75406
    R6        2.51512  -0.00002   0.00000  -0.00003  -0.00003   2.51509
    R7        2.57391   0.00009   0.00000   0.00021   0.00021   2.57412
    R8        2.72955   0.00005   0.00000   0.00010   0.00010   2.72965
    R9        2.05063   0.00001   0.00000   0.00003   0.00003   2.05066
   R10        2.72965  -0.00005   0.00000  -0.00018  -0.00018   2.72947
   R11        2.57396   0.00007   0.00000   0.00018   0.00018   2.57414
   R12        2.05064  -0.00001   0.00000  -0.00003  -0.00003   2.05062
   R13        2.70325  -0.00003   0.00000  -0.00003  -0.00003   2.70322
   R14        2.72951   0.00007   0.00000   0.00014   0.00014   2.72964
   R15        2.54119  -0.00001   0.00000  -0.00003  -0.00003   2.54115
   R16        2.70317   0.00002   0.00000   0.00009   0.00009   2.70326
   R17        2.75406   0.00001   0.00000   0.00004   0.00004   2.75410
   R18        2.51516  -0.00007   0.00000  -0.00017  -0.00017   2.51499
   R19        2.54125  -0.00003   0.00000  -0.00009  -0.00009   2.54115
   R20        2.51511  -0.00003   0.00000  -0.00008  -0.00008   2.51504
   R21        2.05062   0.00001   0.00000   0.00004   0.00004   2.05066
   R22        2.05065  -0.00000   0.00000  -0.00000  -0.00000   2.05065
   R23        2.54117  -0.00002   0.00000  -0.00008  -0.00008   2.54109
   R24        2.51522  -0.00008   0.00000  -0.00015  -0.00015   2.51507
   R25        2.51518  -0.00002   0.00000  -0.00011  -0.00011   2.51507
   R26        2.51503   0.00003   0.00000  -0.00001  -0.00001   2.51502
   R27        2.54124  -0.00008   0.00000  -0.00017  -0.00017   2.54107
   R28        2.54131  -0.00010   0.00000  -0.00019  -0.00019   2.54112
   R29        2.75407   0.00002   0.00000  -0.00003  -0.00003   2.75405
   R30        2.70317   0.00004   0.00000   0.00016   0.00016   2.70333
   R31        2.51503   0.00003   0.00000  -0.00001  -0.00001   2.51502
   R32        2.57404  -0.00001   0.00000   0.00004   0.00004   2.57408
   R33        2.72956   0.00003   0.00000   0.00005   0.00005   2.72961
   R34        2.05063   0.00001   0.00000   0.00003   0.00003   2.05066
   R35        2.70305   0.00006   0.00000   0.00022   0.00022   2.70327
   R36        2.72966  -0.00003   0.00000  -0.00013  -0.00013   2.72953
   R37        2.05063   0.00000   0.00000  -0.00001  -0.00001   2.05062
   R38        2.54131  -0.00010   0.00000  -0.00019  -0.00019   2.54112
   R39        2.54113  -0.00001   0.00000  -0.00007  -0.00007   2.54106
   R40        2.51522  -0.00008   0.00000  -0.00015  -0.00015   2.51507
   R41        2.75408   0.00002   0.00000  -0.00003  -0.00003   2.75405
   R42        2.70317   0.00004   0.00000   0.00015   0.00015   2.70333
   R43        2.57404  -0.00001   0.00000   0.00004   0.00004   2.57408
   R44        2.72956   0.00003   0.00000   0.00004   0.00004   2.72961
   R45        2.05063   0.00001   0.00000   0.00003   0.00003   2.05066
   R46        2.70305   0.00006   0.00000   0.00022   0.00022   2.70327
   R47        2.72966  -0.00003   0.00000  -0.00013  -0.00013   2.72953
   R48        2.54124  -0.00007   0.00000  -0.00017  -0.00017   2.54107
   R49        2.51518  -0.00002   0.00000  -0.00011  -0.00011   2.51507
   R50        2.05063   0.00000   0.00000  -0.00001  -0.00001   2.05062
   R51        2.54125  -0.00003   0.00000  -0.00010  -0.00010   2.54115
   R52        2.51516  -0.00007   0.00000  -0.00018  -0.00018   2.51499
   R53        2.72965  -0.00005   0.00000  -0.00018  -0.00018   2.72947
   R54        2.57396   0.00007   0.00000   0.00018   0.00018   2.57414
   R55        2.05064  -0.00001   0.00000  -0.00003  -0.00003   2.05062
   R56        2.70325  -0.00003   0.00000  -0.00003  -0.00003   2.70322
   R57        2.72950   0.00007   0.00000   0.00014   0.00014   2.72964
   R58        2.54119  -0.00001   0.00000  -0.00004  -0.00004   2.54115
   R59        2.70317   0.00002   0.00000   0.00009   0.00009   2.70326
   R60        2.75406   0.00001   0.00000   0.00004   0.00004   2.75410
   R61        2.72969  -0.00002   0.00000  -0.00010  -0.00010   2.72959
   R62        2.70323  -0.00001   0.00000  -0.00000  -0.00000   2.70322
   R63        2.70328  -0.00005   0.00000  -0.00011  -0.00011   2.70317
   R64        2.75399   0.00002   0.00000   0.00007   0.00007   2.75406
   R65        2.51512  -0.00002   0.00000  -0.00003  -0.00003   2.51509
   R66        2.57391   0.00009   0.00000   0.00021   0.00021   2.57412
   R67        2.72955   0.00005   0.00000   0.00010   0.00010   2.72965
   R68        2.05063   0.00001   0.00000   0.00003   0.00003   2.05066
   R69        2.05065  -0.00000   0.00000  -0.00000  -0.00000   2.05065
   R70        2.54117  -0.00002   0.00000  -0.00007  -0.00007   2.54109
   R71        2.51512  -0.00003   0.00000  -0.00008  -0.00008   2.51504
   R72        2.05062   0.00001   0.00000   0.00004   0.00004   2.05066
    A1        2.07691  -0.00007   0.00000  -0.00034  -0.00034   2.07658
    A2        2.09306   0.00004   0.00000   0.00029   0.00029   2.09335
    A3        2.11322   0.00002   0.00000   0.00005   0.00005   2.11326
    A4        2.08687   0.00001   0.00000   0.00005   0.00005   2.08693
    A5        2.12696  -0.00000   0.00000  -0.00001  -0.00001   2.12695
    A6        2.06935  -0.00001   0.00000  -0.00004  -0.00004   2.06931
    A7        2.11953   0.00002   0.00000   0.00015   0.00015   2.11967
    A8        2.12006  -0.00005   0.00000  -0.00052  -0.00052   2.11954
    A9        2.04360   0.00003   0.00000   0.00037   0.00037   2.04397
   A10        2.11955  -0.00002   0.00000  -0.00009  -0.00009   2.11946
   A11        2.04354   0.00005   0.00000   0.00049   0.00049   2.04403
   A12        2.12010  -0.00003   0.00000  -0.00040  -0.00040   2.11969
   A13        2.07689  -0.00001   0.00000  -0.00004  -0.00004   2.07686
   A14        2.11321  -0.00003   0.00000  -0.00009  -0.00009   2.11313
   A15        2.09308   0.00003   0.00000   0.00012   0.00012   2.09320
   A16        2.08673   0.00006   0.00000   0.00026   0.00026   2.08698
   A17        2.12712  -0.00005   0.00000  -0.00023  -0.00023   2.12689
   A18        2.06933  -0.00001   0.00000  -0.00003  -0.00003   2.06931
   A19        2.07689  -0.00001   0.00000  -0.00009  -0.00009   2.07680
   A20        2.09301   0.00003   0.00000   0.00021   0.00021   2.09322
   A21        2.11328  -0.00001   0.00000  -0.00012  -0.00012   2.11317
   A22        2.08680  -0.00003   0.00000  -0.00017  -0.00017   2.08663
   A23        2.12702   0.00001   0.00000   0.00007   0.00007   2.12709
   A24        2.06936   0.00002   0.00000   0.00011   0.00011   2.06947
   A25        2.11951   0.00002   0.00000   0.00013   0.00013   2.11964
   A26        2.12030  -0.00006   0.00000  -0.00055  -0.00055   2.11975
   A27        2.04338   0.00005   0.00000   0.00042   0.00042   2.04380
   A28        2.11953   0.00001   0.00000   0.00011   0.00011   2.11965
   A29        2.04347   0.00004   0.00000   0.00044   0.00044   2.04391
   A30        2.12018  -0.00005   0.00000  -0.00055  -0.00055   2.11963
   A31        2.07684  -0.00005   0.00000  -0.00026  -0.00026   2.07658
   A32        2.11325   0.00000   0.00000   0.00003   0.00003   2.11328
   A33        2.09309   0.00005   0.00000   0.00023   0.00023   2.09332
   A34        2.08668   0.00007   0.00000   0.00029   0.00029   2.08696
   A35        2.12708  -0.00004   0.00000  -0.00018  -0.00018   2.12690
   A36        2.06943  -0.00003   0.00000  -0.00011  -0.00011   2.06933
   A37        2.04160   0.00001   0.00000   0.00003   0.00003   2.04163
   A38        2.04432   0.00000   0.00000  -0.00003  -0.00003   2.04429
   A39        2.04407   0.00008   0.00000   0.00045   0.00045   2.04451
   A40        2.04422   0.00003   0.00000   0.00018   0.00018   2.04440
   A41        2.04144   0.00005   0.00000   0.00031   0.00031   2.04175
   A42        2.04155   0.00003   0.00000   0.00016   0.00016   2.04170
   A43        2.08699  -0.00008   0.00000  -0.00036  -0.00036   2.08663
   A44        2.06914   0.00009   0.00000   0.00040   0.00040   2.06954
   A45        2.12705  -0.00001   0.00000  -0.00004  -0.00004   2.12701
   A46        2.11964  -0.00001   0.00000  -0.00005  -0.00005   2.11958
   A47        2.11998  -0.00003   0.00000  -0.00020  -0.00020   2.11978
   A48        2.04357   0.00004   0.00000   0.00026   0.00026   2.04383
   A49        2.11329  -0.00002   0.00000  -0.00014  -0.00014   2.11315
   A50        2.09323  -0.00004   0.00000  -0.00015  -0.00015   2.09308
   A51        2.07666   0.00006   0.00000   0.00029   0.00029   2.07695
   A52        2.06917   0.00006   0.00000   0.00026   0.00026   2.06943
   A53        2.12716  -0.00005   0.00000  -0.00027  -0.00027   2.12689
   A54        2.08685  -0.00000   0.00000   0.00001   0.00001   2.08686
   A55        2.11964  -0.00004   0.00000  -0.00023  -0.00023   2.11941
   A56        2.12003  -0.00002   0.00000  -0.00021  -0.00021   2.11982
   A57        2.04351   0.00006   0.00000   0.00045   0.00045   2.04396
   A58        2.07659   0.00008   0.00000   0.00035   0.00035   2.07694
   A59        2.11326  -0.00004   0.00000  -0.00016  -0.00016   2.11310
   A60        2.09333  -0.00004   0.00000  -0.00019  -0.00019   2.09314
   A61        2.04155   0.00003   0.00000   0.00016   0.00016   2.04170
   A62        2.04422   0.00003   0.00000   0.00018   0.00018   2.04440
   A63        2.06914   0.00009   0.00000   0.00040   0.00040   2.06954
   A64        2.12705  -0.00001   0.00000  -0.00004  -0.00004   2.12701
   A65        2.08699  -0.00008   0.00000  -0.00036  -0.00036   2.08663
   A66        2.11964  -0.00001   0.00000  -0.00005  -0.00005   2.11958
   A67        2.11998  -0.00003   0.00000  -0.00020  -0.00020   2.11978
   A68        2.04357   0.00004   0.00000   0.00026   0.00026   2.04383
   A69        2.07666   0.00006   0.00000   0.00029   0.00029   2.07695
   A70        2.11329  -0.00002   0.00000  -0.00014  -0.00014   2.11315
   A71        2.09323  -0.00004   0.00000  -0.00015  -0.00015   2.09308
   A72        2.08685  -0.00000   0.00000   0.00001   0.00001   2.08686
   A73        2.06917   0.00006   0.00000   0.00026   0.00026   2.06943
   A74        2.12716  -0.00005   0.00000  -0.00027  -0.00027   2.12689
   A75        2.11964  -0.00004   0.00000  -0.00023  -0.00023   2.11941
   A76        2.12003  -0.00002   0.00000  -0.00021  -0.00021   2.11982
   A77        2.04351   0.00006   0.00000   0.00045   0.00045   2.04396
   A78        2.11326  -0.00004   0.00000  -0.00016  -0.00016   2.11310
   A79        2.09333  -0.00004   0.00000  -0.00019  -0.00019   2.09314
   A80        2.07659   0.00008   0.00000   0.00036   0.00036   2.07694
   A81        2.04144   0.00005   0.00000   0.00031   0.00031   2.04175
   A82        2.04407   0.00008   0.00000   0.00045   0.00045   2.04451
   A83        2.11955  -0.00002   0.00000  -0.00009  -0.00009   2.11946
   A84        2.04354   0.00005   0.00000   0.00049   0.00049   2.04403
   A85        2.12010  -0.00003   0.00000  -0.00040  -0.00040   2.11969
   A86        2.07689  -0.00001   0.00000  -0.00004  -0.00004   2.07686
   A87        2.11321  -0.00003   0.00000  -0.00009  -0.00009   2.11313
   A88        2.09308   0.00003   0.00000   0.00012   0.00012   2.09320
   A89        2.12712  -0.00005   0.00000  -0.00023  -0.00023   2.12689
   A90        2.06933  -0.00001   0.00000  -0.00003  -0.00003   2.06931
   A91        2.08673   0.00006   0.00000   0.00026   0.00026   2.08698
   A92        2.09306   0.00004   0.00000   0.00029   0.00029   2.09335
   A93        2.11322   0.00002   0.00000   0.00005   0.00005   2.11326
   A94        2.07691  -0.00007   0.00000  -0.00034  -0.00034   2.07658
   A95        2.08687   0.00001   0.00000   0.00005   0.00005   2.08693
   A96        2.12696  -0.00000   0.00000  -0.00001  -0.00001   2.12695
   A97        2.06935  -0.00001   0.00000  -0.00004  -0.00004   2.06931
   A98        2.11953   0.00002   0.00000   0.00015   0.00015   2.11967
   A99        2.12006  -0.00005   0.00000  -0.00052  -0.00052   2.11954
   A100       2.04360   0.00003   0.00000   0.00037   0.00037   2.04397
   A101       2.11954   0.00001   0.00000   0.00011   0.00011   2.11965
   A102       2.04347   0.00004   0.00000   0.00044   0.00044   2.04391
   A103       2.12018  -0.00005   0.00000  -0.00055  -0.00055   2.11963
   A104       2.07684  -0.00005   0.00000  -0.00026  -0.00026   2.07658
   A105       2.11325   0.00000   0.00000   0.00003   0.00003   2.11328
   A106       2.09309   0.00005   0.00000   0.00023   0.00023   2.09332
   A107       2.12707  -0.00004   0.00000  -0.00018  -0.00018   2.12690
   A108       2.06943  -0.00003   0.00000  -0.00011  -0.00011   2.06933
   A109       2.08668   0.00007   0.00000   0.00029   0.00029   2.08696
   A110       2.09301   0.00003   0.00000   0.00021   0.00021   2.09322
   A111       2.11328  -0.00001   0.00000  -0.00012  -0.00012   2.11317
   A112       2.07689  -0.00001   0.00000  -0.00009  -0.00009   2.07680
   A113       2.08680  -0.00003   0.00000  -0.00017  -0.00017   2.08663
   A114       2.12702   0.00001   0.00000   0.00007   0.00007   2.12709
   A115       2.06936   0.00002   0.00000   0.00011   0.00011   2.06947
   A116       2.11951   0.00002   0.00000   0.00013   0.00013   2.11964
   A117       2.12030  -0.00006   0.00000  -0.00055  -0.00055   2.11975
   A118       2.04338   0.00005   0.00000   0.00042   0.00042   2.04380
   A119       2.04432   0.00000   0.00000  -0.00003  -0.00003   2.04429
   A120       2.04160   0.00001   0.00000   0.00003   0.00003   2.04163
    D1       -0.00000   0.00000   0.00000   0.00000   0.00000  -0.00000
    D2        3.14159   0.00000   0.00000   0.00000   0.00000   3.14159
    D3        3.14159   0.00000   0.00000   0.00000   0.00000   3.14159
    D4       -0.00000   0.00000   0.00000   0.00000   0.00000  -0.00000
    D5        0.00000  -0.00000   0.00000  -0.00000  -0.00000   0.00000
    D6       -3.14159  -0.00000   0.00000  -0.00000  -0.00000   3.14159
    D7       -3.14159  -0.00000   0.00000  -0.00000  -0.00000  -3.14159
    D8        0.00000  -0.00000   0.00000  -0.00000  -0.00000   0.00000
    D9       -3.14159  -0.00000   0.00000  -0.00000  -0.00000  -3.14159
   D10        0.00000  -0.00000   0.00000  -0.00000  -0.00000   0.00000
   D11       -0.00000   0.00000   0.00000   0.00000   0.00000  -0.00000
   D12        3.14159   0.00000   0.00000   0.00000   0.00000   3.14159
   D13        3.14159   0.00000   0.00000   0.00000   0.00000   3.14159
   D14       -0.00000  -0.00000   0.00000   0.00000   0.00000   0.00000
   D15        0.00000  -0.00000   0.00000  -0.00000  -0.00000   0.00000
   D16       -3.14159  -0.00000   0.00000  -0.00000  -0.00000  -3.14159
   D17        3.14159  -0.00000   0.00000   0.00000   0.00000   3.14159
   D18        0.00000  -0.00000   0.00000  -0.00000  -0.00000   0.00000
   D19        0.00000  -0.00000   0.00000  -0.00000  -0.00000   0.00000
   D20       -3.14159  -0.00000   0.00000  -0.00000  -0.00000  -3.14159
   D21        0.00000  -0.00000   0.00000  -0.00000  -0.00000   0.00000
   D22        3.14159  -0.00000   0.00000   0.00000   0.00000   3.14159
   D23       -3.14159  -0.00000   0.00000  -0.00000  -0.00000  -3.14159
   D24       -0.00000   0.00000   0.00000   0.00000   0.00000   0.00000
   D25        0.00000  -0.00000   0.00000  -0.00000  -0.00000   0.00000
   D26       -3.14159   0.00000   0.00000  -0.00000  -0.00000  -3.14159
   D27       -3.14159  -0.00000   0.00000  -0.00000  -0.00000  -3.14159
   D28        0.00000   0.00000   0.00000  -0.00000  -0.00000   0.00000
   D29        0.00000  -0.00000   0.00000  -0.00000  -0.00000   0.00000
   D30       -3.14159  -0.00000   0.00000  -0.00000  -0.00000  -3.14159
   D31       -3.14159  -0.00000   0.00000  -0.00000  -0.00000  -3.14159
   D32        0.00000  -0.00000   0.00000  -0.00000  -0.00000   0.00000
   D33        0.00000  -0.00000   0.00000  -0.00000  -0.00000   0.00000
   D34       -3.14159  -0.00000   0.00000  -0.00000  -0.00000   3.14159
   D35       -3.14159  -0.00000   0.00000  -0.00000  -0.00000  -3.14159
   D36        0.00000  -0.00000   0.00000  -0.00000  -0.00000   0.00000
   D37        0.00000  -0.00000   0.00000  -0.00000  -0.00000   0.00000
   D38       -3.14159  -0.00000   0.00000  -0.00000  -0.00000  -3.14159
   D39       -3.14159  -0.00000   0.00000  -0.00000  -0.00000  -3.14159
   D40        0.00000   0.00000   0.00000  -0.00000  -0.00000   0.00000
   D41       -0.00000   0.00000   0.00000   0.00000   0.00000  -0.00000
   D42        3.14159   0.00000   0.00000   0.00000   0.00000   3.14159
   D43        3.14159   0.00000   0.00000   0.00000   0.00000   3.14159
   D44       -0.00000   0.00000   0.00000   0.00000   0.00000  -0.00000
   D45        0.00000  -0.00000   0.00000  -0.00000  -0.00000   0.00000
   D46       -3.14159  -0.00000   0.00000  -0.00000  -0.00000  -3.14159
   D47       -0.00000   0.00000   0.00000   0.00000   0.00000  -0.00000
   D48        3.14159   0.00000   0.00000   0.00000   0.00000   3.14159
   D49        3.14159   0.00000   0.00000   0.00000   0.00000  -3.14159
   D50       -0.00000   0.00000   0.00000   0.00000   0.00000   0.00000
   D51       -0.00000   0.00000   0.00000   0.00000   0.00000   0.00000
   D52       -3.14159  -0.00000   0.00000  -0.00000  -0.00000  -3.14159
   D53        3.14159   0.00000   0.00000   0.00000   0.00000   3.14159
   D54       -0.00000   0.00000   0.00000   0.00000   0.00000   0.00000
   D55        0.00000  -0.00000   0.00000  -0.00000  -0.00000   0.00000
   D56       -3.14159  -0.00000   0.00000  -0.00000  -0.00000  -3.14159
   D57        3.14159   0.00000   0.00000   0.00000   0.00000   3.14159
   D58       -0.00000   0.00000   0.00000   0.00000   0.00000   0.00000
   D59       -0.00000   0.00000   0.00000   0.00000   0.00000  -0.00000
   D60        3.14159   0.00000   0.00000   0.00000   0.00000   3.14159
   D61       -0.00000   0.00000   0.00000   0.00000   0.00000  -0.00000
   D62        3.14159   0.00000   0.00000   0.00000   0.00000   3.14159
   D63       -0.00000   0.00000   0.00000   0.00000   0.00000  -0.00000
   D64        3.14159   0.00000   0.00000   0.00000   0.00000   3.14159
   D65        3.14159   0.00000   0.00000   0.00000   0.00000   3.14159
   D66       -0.00000   0.00000   0.00000   0.00000   0.00000  -0.00000
   D67       -3.14159  -0.00000   0.00000  -0.00000  -0.00000  -3.14159
   D68        0.00000  -0.00000   0.00000  -0.00000  -0.00000   0.00000
   D69        0.00000  -0.00000   0.00000  -0.00000  -0.00000   0.00000
   D70       -3.14159  -0.00000   0.00000  -0.00000  -0.00000  -3.14159
   D71       -0.00000   0.00000   0.00000   0.00000   0.00000   0.00000
   D72        3.14159   0.00000   0.00000   0.00000   0.00000   3.14159
   D73       -3.14159  -0.00000   0.00000  -0.00000  -0.00000   3.14159
   D74       -0.00000   0.00000   0.00000   0.00000   0.00000  -0.00000
   D75        0.00000  -0.00000   0.00000  -0.00000  -0.00000  -0.00000
   D76        3.14159   0.00000   0.00000   0.00000   0.00000   3.14159
   D77       -0.00000   0.00000   0.00000   0.00000   0.00000   0.00000
   D78        3.14159   0.00000   0.00000   0.00000   0.00000   3.14159
   D79       -3.14159  -0.00000   0.00000  -0.00000  -0.00000  -3.14159
   D80        0.00000  -0.00000   0.00000  -0.00000  -0.00000   0.00000
   D81       -3.14159  -0.00000   0.00000  -0.00000  -0.00000  -3.14159
   D82        0.00000  -0.00000   0.00000  -0.00000  -0.00000   0.00000
   D83       -0.00000   0.00000   0.00000   0.00000   0.00000   0.00000
   D84        3.14159   0.00000   0.00000   0.00000   0.00000   3.14159
   D85       -3.14159  -0.00000   0.00000  -0.00000  -0.00000  -3.14159
   D86       -0.00000   0.00000   0.00000   0.00000   0.00000   0.00000
   D87        0.00000  -0.00000   0.00000  -0.00000  -0.00000   0.00000
   D88       -3.14159  -0.00000   0.00000  -0.00000  -0.00000  -3.14159
   D89       -3.14159  -0.00000   0.00000  -0.00000  -0.00000   3.14159
   D90        0.00000  -0.00000   0.00000  -0.00000  -0.00000   0.00000
   D91       -0.00000   0.00000   0.00000   0.00000   0.00000   0.00000
   D92       -3.14159  -0.00000   0.00000  -0.00000  -0.00000  -3.14159
   D93        3.14159   0.00000   0.00000   0.00000   0.00000  -3.14159
   D94        0.00000  -0.00000   0.00000  -0.00000  -0.00000   0.00000
   D95        3.14159   0.00000   0.00000   0.00000   0.00000   3.14159
   D96       -0.00000  -0.00000   0.00000   0.00000   0.00000  -0.00000
   D97       -0.00000   0.00000   0.00000   0.00000   0.00000  -0.00000
   D98       -3.14159  -0.00000   0.00000  -0.00000  -0.00000   3.14159
   D99       -0.00000   0.00000   0.00000   0.00000   0.00000  -0.00000
   D100       3.14159   0.00000   0.00000   0.00000   0.00000   3.14159
   D101      -3.14159  -0.00000   0.00000  -0.00000  -0.00000  -3.14159
   D102       0.00000  -0.00000   0.00000  -0.00000  -0.00000   0.00000
   D103      -0.00000   0.00000   0.00000   0.00000   0.00000  -0.00000
   D104       3.14159   0.00000   0.00000   0.00000   0.00000   3.14159
   D105       3.14159   0.00000   0.00000   0.00000   0.00000   3.14159
   D106      -0.00000  -0.00000   0.00000   0.00000   0.00000   0.00000
   D107      -0.00000   0.00000   0.00000   0.00000   0.00000   0.00000
   D108      -3.14159  -0.00000   0.00000  -0.00000  -0.00000  -3.14159
   D109       0.00000  -0.00000   0.00000  -0.00000  -0.00000   0.00000
   D110      -3.14159  -0.00000   0.00000  -0.00000  -0.00000   3.14159
   D111       3.14159   0.00000   0.00000   0.00000   0.00000   3.14159
   D112      -0.00000   0.00000   0.00000   0.00000   0.00000  -0.00000
   D113      -0.00000   0.00000   0.00000   0.00000   0.00000   0.00000
   D114       3.14159   0.00000   0.00000   0.00000   0.00000   3.14159
   D115      -3.14159  -0.00000   0.00000  -0.00000  -0.00000   3.14159
   D116      -0.00000   0.00000   0.00000   0.00000   0.00000  -0.00000
   D117      -3.14159  -0.00000   0.00000  -0.00000  -0.00000  -3.14159
   D118       0.00000  -0.00000   0.00000  -0.00000  -0.00000   0.00000
   D119       0.00000  -0.00000   0.00000  -0.00000  -0.00000   0.00000
   D120      -3.14159  -0.00000   0.00000  -0.00000  -0.00000  -3.14159
   D121       0.00000  -0.00000   0.00000  -0.00000  -0.00000   0.00000
   D122       3.14159   0.00000   0.00000   0.00000   0.00000   3.14159
   D123      -3.14159  -0.00000   0.00000  -0.00000  -0.00000   3.14159
   D124       0.00000   0.00000   0.00000  -0.00000  -0.00000  -0.00000
   D125      -0.00000   0.00000   0.00000   0.00000   0.00000  -0.00000
   D126       3.14159  -0.00000   0.00000   0.00000   0.00000   3.14159
   D127       3.14159   0.00000   0.00000   0.00000   0.00000   3.14159
   D128      -0.00000   0.00000   0.00000   0.00000   0.00000   0.00000
   D129       0.00000  -0.00000   0.00000  -0.00000  -0.00000   0.00000
   D130      -3.14159  -0.00000   0.00000  -0.00000  -0.00000  -3.14159
   D131       3.14159   0.00000   0.00000   0.00001   0.00001   3.14159
   D132      -0.00000   0.00000   0.00000   0.00000   0.00000   0.00000
   D133       3.14159   0.00000   0.00000   0.00000   0.00000   3.14159
   D134      -0.00000   0.00000   0.00000   0.00000   0.00000  -0.00000
   D135       0.00000  -0.00000   0.00000  -0.00000  -0.00000   0.00000
   D136      -3.14159  -0.00000   0.00000  -0.00001  -0.00001  -3.14159
   D137      -3.14159  -0.00000   0.00000  -0.00000  -0.00000  -3.14159
   D138       0.00000  -0.00000   0.00000  -0.00000  -0.00000   0.00000
   D139       0.00000  -0.00000   0.00000  -0.00000  -0.00000   0.00000
   D140      -3.14159   0.00000   0.00000  -0.00000  -0.00000  -3.14159
   D141       0.00000  -0.00000   0.00000  -0.00000  -0.00000   0.00000
   D142      -3.14159  -0.00000   0.00000  -0.00000  -0.00000  -3.14159
   D143      -3.14159  -0.00000   0.00000  -0.00000  -0.00000  -3.14159
   D144       0.00000  -0.00000   0.00000  -0.00000  -0.00000   0.00000
   D145       0.00000  -0.00000   0.00000  -0.00000  -0.00000   0.00000
   D146      -3.14159  -0.00000   0.00000  -0.00000  -0.00000   3.14159
   D147      -3.14159  -0.00000   0.00000  -0.00000  -0.00000  -3.14159
   D148      -0.00000   0.00000   0.00000   0.00000   0.00000   0.00000
   D149      -0.00000   0.00000   0.00000   0.00000   0.00000  -0.00000
   D150       3.14159   0.00000   0.00000   0.00000   0.00000   3.14159
   D151       3.14159   0.00000   0.00000   0.00000   0.00000   3.14159
   D152      -0.00000   0.00000   0.00000   0.00000   0.00000  -0.00000
   D153       0.00000  -0.00000   0.00000  -0.00000  -0.00000   0.00000
   D154      -3.14159  -0.00000   0.00000  -0.00000  -0.00000  -3.14159
   D155      -0.00000   0.00000   0.00000   0.00000   0.00000  -0.00000
   D156      -3.14159  -0.00000   0.00000  -0.00000  -0.00000  -3.14159
   D157       3.14159   0.00000   0.00000   0.00000   0.00000   3.14159
   D158      -0.00000   0.00000   0.00000   0.00000   0.00000  -0.00000
   D159       3.14159   0.00000   0.00000   0.00000   0.00000   3.14159
   D160      -0.00000   0.00000   0.00000   0.00000   0.00000   0.00000
   D161       0.00000   0.00000   0.00000  -0.00000  -0.00000   0.00000
   D162      -3.14159  -0.00000   0.00000  -0.00000  -0.00000  -3.14159
   D163       3.14159   0.00000   0.00000   0.00000   0.00000   3.14159
   D164      -0.00000   0.00000   0.00000   0.00000   0.00000  -0.00000
   D165      -0.00000   0.00000   0.00000   0.00000   0.00000   0.00000
   D166       3.14159   0.00000   0.00000   0.00000   0.00000   3.14159
   D167       0.00000  -0.00000   0.00000  -0.00000  -0.00000   0.00000
   D168      -3.14159  -0.00000   0.00000  -0.00000  -0.00000  -3.14159
   D169      -3.14159  -0.00000   0.00000  -0.00000  -0.00000   3.14159
   D170       0.00000  -0.00000   0.00000  -0.00000  -0.00000   0.00000
   D171      -0.00000   0.00000   0.00000   0.00000   0.00000   0.00000
   D172       3.14159   0.00000   0.00000   0.00000   0.00000   3.14159
   D173       3.14159   0.00000   0.00000   0.00000   0.00000   3.14159
   D174      -0.00000   0.00000   0.00000   0.00000   0.00000   0.00000
   D175      -3.14159  -0.00000   0.00000  -0.00000  -0.00000  -3.14159
   D176       0.00000  -0.00000   0.00000  -0.00000  -0.00000   0.00000
   D177       0.00000  -0.00000   0.00000  -0.00000  -0.00000   0.00000
   D178       3.14159  -0.00000   0.00000   0.00000   0.00000   3.14159
   D179       0.00000  -0.00000   0.00000  -0.00000  -0.00000   0.00000
   D180      -3.14159  -0.00000   0.00000  -0.00000  -0.00000  -3.14159
   D181       0.00000  -0.00000   0.00000  -0.00000  -0.00000  -0.00000
   D182       3.14159  -0.00000   0.00000   0.00000   0.00000   3.14159
   D183      -3.14159   0.00000   0.00000  -0.00000  -0.00000  -3.14159
   D184      -0.00000   0.00000   0.00000   0.00000   0.00000   0.00000
   D185       0.00000  -0.00000   0.00000  -0.00000  -0.00000   0.00000
   D186      -3.14159  -0.00000   0.00000  -0.00000  -0.00000  -3.14159
   D187      -3.14159  -0.00000   0.00000  -0.00000  -0.00000   3.14159
   D188       0.00000  -0.00000   0.00000  -0.00000  -0.00000   0.00000
   D189      -0.00000   0.00000   0.00000   0.00000   0.00000  -0.00000
   D190       3.14159   0.00000   0.00000   0.00000   0.00000   3.14159
   D191      -0.00000   0.00000   0.00000   0.00000   0.00000  -0.00000
   D192       3.14159   0.00000   0.00000   0.00000   0.00000   3.14159
         Item               Value     Threshold  Converged?
 Maximum Force            0.000100     0.000450     YES
 RMS     Force            0.000030     0.000300     YES
 Maximum Displacement     0.001163     0.001800     YES
 RMS     Displacement     0.000241     0.001200     YES
 Predicted change in Energy=-7.747245D-07
 Optimization completed.
    -- Stationary point found.
                           ----------------------------
                           !   Optimized Parameters   !
                           ! (Angstroms and Degrees)  !
 --------------------------                            --------------------------
 ! Name  Definition              Value          Derivative Info.                !
 --------------------------------------------------------------------------------
 ! R1    R(1,10)                 1.4445         -DE/DX =    0.0                 !
 ! R2    R(1,12)                 1.4305         -DE/DX =    0.0                 !
 ! R3    R(1,18)                 1.3447         -DE/DX =    0.0                 !
 ! R4    R(2,11)                 1.4305         -DE/DX =   -0.0001              !
 ! R5    R(2,12)                 1.4573         -DE/DX =    0.0                 !
 ! R6    R(2,14)                 1.3309         -DE/DX =    0.0                 !
 ! R7    R(3,10)                 1.3621         -DE/DX =    0.0001              !
 ! R8    R(3,11)                 1.4444         -DE/DX =    0.0                 !
 ! R9    R(3,53)                 1.0851         -DE/DX =    0.0                 !
 ! R10   R(4,7)                  1.4445         -DE/DX =    0.0                 !
 ! R11   R(4,9)                  1.3621         -DE/DX =    0.0001              !
 ! R12   R(4,51)                 1.0852         -DE/DX =    0.0                 !
 ! R13   R(5,8)                  1.4305         -DE/DX =    0.0                 !
 ! R14   R(5,9)                  1.4444         -DE/DX =    0.0001              !
 ! R15   R(5,13)                 1.3447         -DE/DX =    0.0                 !
 ! R16   R(6,7)                  1.4305         -DE/DX =    0.0                 !
 ! R17   R(6,8)                  1.4574         -DE/DX =    0.0                 !
 ! R18   R(6,15)                 1.331          -DE/DX =   -0.0001              !
 ! R19   R(7,17)                 1.3448         -DE/DX =    0.0                 !
 ! R20   R(8,14)                 1.3309         -DE/DX =    0.0                 !
 ! R21   R(9,52)                 1.0851         -DE/DX =    0.0                 !
 ! R22   R(10,54)                1.0852         -DE/DX =    0.0                 !
 ! R23   R(11,13)                1.3447         -DE/DX =    0.0                 !
 ! R24   R(12,16)                1.331          -DE/DX =   -0.0001              !
 ! R25   R(15,22)                1.331          -DE/DX =    0.0                 !
 ! R26   R(16,27)                1.3309         -DE/DX =    0.0                 !
 ! R27   R(17,21)                1.3448         -DE/DX =   -0.0001              !
 ! R28   R(18,32)                1.3448         -DE/DX =   -0.0001              !
 ! R29   R(19,22)                1.4574         -DE/DX =    0.0                 !
 ! R30   R(19,24)                1.4305         -DE/DX =    0.0                 !
 ! R31   R(19,26)                1.3309         -DE/DX =    0.0                 !
 ! R32   R(20,23)                1.3621         -DE/DX =    0.0                 !
 ! R33   R(20,24)                1.4444         -DE/DX =    0.0                 !
 ! R34   R(20,50)                1.0851         -DE/DX =    0.0                 !
 ! R35   R(21,22)                1.4304         -DE/DX =    0.0001              !
 ! R36   R(21,23)                1.4445         -DE/DX =    0.0                 !
 ! R37   R(23,49)                1.0851         -DE/DX =    0.0                 !
 ! R38   R(24,25)                1.3448         -DE/DX =   -0.0001              !
 ! R39   R(25,38)                1.3447         -DE/DX =    0.0                 !
 ! R40   R(26,43)                1.331          -DE/DX =   -0.0001              !
 ! R41   R(27,30)                1.4574         -DE/DX =    0.0                 !
 ! R42   R(27,32)                1.4305         -DE/DX =    0.0                 !
 ! R43   R(28,31)                1.3621         -DE/DX =    0.0                 !
 ! R44   R(28,32)                1.4444         -DE/DX =    0.0                 !
 ! R45   R(28,55)                1.0851         -DE/DX =    0.0                 !
 ! R46   R(29,30)                1.4304         -DE/DX =    0.0001              !
 ! R47   R(29,31)                1.4445         -DE/DX =    0.0                 !
 ! R48   R(29,33)                1.3448         -DE/DX =   -0.0001              !
 ! R49   R(30,34)                1.331          -DE/DX =    0.0                 !
 ! R50   R(31,56)                1.0851         -DE/DX =    0.0                 !
 ! R51   R(33,44)                1.3448         -DE/DX =    0.0                 !
 ! R52   R(34,37)                1.331          -DE/DX =   -0.0001              !
 ! R53   R(35,44)                1.4445         -DE/DX =    0.0                 !
 ! R54   R(35,46)                1.3621         -DE/DX =    0.0001              !
 ! R55   R(35,57)                1.0852         -DE/DX =    0.0                 !
 ! R56   R(36,45)                1.4305         -DE/DX =    0.0                 !
 ! R57   R(36,46)                1.4444         -DE/DX =    0.0001              !
 ! R58   R(36,48)                1.3447         -DE/DX =    0.0                 !
 ! R59   R(37,44)                1.4305         -DE/DX =    0.0                 !
 ! R60   R(37,45)                1.4574         -DE/DX =    0.0                 !
 ! R61   R(38,41)                1.4445         -DE/DX =    0.0                 !
 ! R62   R(38,43)                1.4305         -DE/DX =    0.0                 !
 ! R63   R(39,42)                1.4305         -DE/DX =   -0.0001              !
 ! R64   R(39,43)                1.4573         -DE/DX =    0.0                 !
 ! R65   R(39,47)                1.3309         -DE/DX =    0.0                 !
 ! R66   R(40,41)                1.3621         -DE/DX =    0.0001              !
 ! R67   R(40,42)                1.4444         -DE/DX =    0.0                 !
 ! R68   R(40,59)                1.0851         -DE/DX =    0.0                 !
 ! R69   R(41,60)                1.0852         -DE/DX =    0.0                 !
 ! R70   R(42,48)                1.3447         -DE/DX =    0.0                 !
 ! R71   R(45,47)                1.3309         -DE/DX =    0.0                 !
 ! R72   R(46,58)                1.0851         -DE/DX =    0.0                 !
 ! A1    A(10,1,12)            118.9984         -DE/DX =   -0.0001              !
 ! A2    A(10,1,18)            119.9232         -DE/DX =    0.0                 !
 ! A3    A(12,1,18)            121.0783         -DE/DX =    0.0                 !
 ! A4    A(11,2,12)            119.569          -DE/DX =    0.0                 !
 ! A5    A(11,2,14)            121.8661         -DE/DX =    0.0                 !
 ! A6    A(12,2,14)            118.5648         -DE/DX =    0.0                 !
 ! A7    A(10,3,11)            121.4399         -DE/DX =    0.0                 !
 ! A8    A(10,3,53)            121.4704         -DE/DX =   -0.0001              !
 ! A9    A(11,3,53)            117.0896         -DE/DX =    0.0                 !
 ! A10   A(7,4,9)              121.4411         -DE/DX =    0.0                 !
 ! A11   A(7,4,51)             117.0863         -DE/DX =    0.0001              !
 ! A12   A(9,4,51)             121.4726         -DE/DX =    0.0                 !
 ! A13   A(8,5,9)              118.9972         -DE/DX =    0.0                 !
 ! A14   A(8,5,13)             121.0782         -DE/DX =    0.0                 !
 ! A15   A(9,5,13)             119.9245         -DE/DX =    0.0                 !
 ! A16   A(7,6,8)              119.5606         -DE/DX =    0.0001              !
 ! A17   A(7,6,15)             121.8753         -DE/DX =    0.0                 !
 ! A18   A(8,6,15)             118.5641         -DE/DX =    0.0                 !
 ! A19   A(4,7,6)              118.9972         -DE/DX =    0.0                 !
 ! A20   A(4,7,17)             119.9207         -DE/DX =    0.0                 !
 ! A21   A(6,7,17)             121.0822         -DE/DX =    0.0                 !
 ! A22   A(5,8,6)              119.5651         -DE/DX =    0.0                 !
 ! A23   A(5,8,14)             121.8691         -DE/DX =    0.0                 !
 ! A24   A(6,8,14)             118.5658         -DE/DX =    0.0                 !
 ! A25   A(4,9,5)              121.4388         -DE/DX =    0.0                 !
 ! A26   A(4,9,52)             121.4844         -DE/DX =   -0.0001              !
 ! A27   A(5,9,52)             117.0768         -DE/DX =    0.0                 !
 ! A28   A(1,10,3)             121.4404         -DE/DX =    0.0                 !
 ! A29   A(1,10,54)            117.0822         -DE/DX =    0.0                 !
 ! A30   A(3,10,54)            121.4774         -DE/DX =   -0.0001              !
 ! A31   A(2,11,3)             118.9944         -DE/DX =   -0.0001              !
 ! A32   A(2,11,13)            121.0805         -DE/DX =    0.0                 !
 ! A33   A(3,11,13)            119.9251         -DE/DX =    0.0                 !
 ! A34   A(1,12,2)             119.5578         -DE/DX =    0.0001              !
 ! A35   A(1,12,16)            121.8724         -DE/DX =    0.0                 !
 ! A36   A(2,12,16)            118.5698         -DE/DX =    0.0                 !
 ! A37   A(5,13,11)            116.9752         -DE/DX =    0.0                 !
 ! A38   A(2,14,8)             117.1308         -DE/DX =    0.0                 !
 ! A39   A(6,15,22)            117.1164         -DE/DX =    0.0001              !
 ! A40   A(12,16,27)           117.125          -DE/DX =    0.0                 !
 ! A41   A(7,17,21)            116.9659         -DE/DX =    0.0001              !
 ! A42   A(1,18,32)            116.9719         -DE/DX =    0.0                 !
 ! A43   A(22,19,24)           119.5756         -DE/DX =   -0.0001              !
 ! A44   A(22,19,26)           118.5531         -DE/DX =    0.0001              !
 ! A45   A(24,19,26)           121.8712         -DE/DX =    0.0                 !
 ! A46   A(23,20,24)           121.4462         -DE/DX =    0.0                 !
 ! A47   A(23,20,50)           121.4657         -DE/DX =    0.0                 !
 ! A48   A(24,20,50)           117.0881         -DE/DX =    0.0                 !
 ! A49   A(17,21,22)           121.0828         -DE/DX =    0.0                 !
 ! A50   A(17,21,23)           119.9331         -DE/DX =    0.0                 !
 ! A51   A(22,21,23)           118.9841         -DE/DX =    0.0001              !
 ! A52   A(15,22,19)           118.5546         -DE/DX =    0.0001              !
 ! A53   A(15,22,21)           121.8775         -DE/DX =   -0.0001              !
 ! A54   A(19,22,21)           119.5678         -DE/DX =    0.0                 !
 ! A55   A(20,23,21)           121.4465         -DE/DX =    0.0                 !
 ! A56   A(20,23,49)           121.4689         -DE/DX =    0.0                 !
 ! A57   A(21,23,49)           117.0847         -DE/DX =    0.0001              !
 ! A58   A(19,24,20)           118.9798         -DE/DX =    0.0001              !
 ! A59   A(19,24,25)           121.081          -DE/DX =    0.0                 !
 ! A60   A(20,24,25)           119.9392         -DE/DX =    0.0                 !
 ! A61   A(24,25,38)           116.9719         -DE/DX =    0.0                 !
 ! A62   A(19,26,43)           117.125          -DE/DX =    0.0                 !
 ! A63   A(16,27,30)           118.5531         -DE/DX =    0.0001              !
 ! A64   A(16,27,32)           121.8712         -DE/DX =    0.0                 !
 ! A65   A(30,27,32)           119.5757         -DE/DX =   -0.0001              !
 ! A66   A(31,28,32)           121.4462         -DE/DX =    0.0                 !
 ! A67   A(31,28,55)           121.4657         -DE/DX =    0.0                 !
 ! A68   A(32,28,55)           117.088          -DE/DX =    0.0                 !
 ! A69   A(30,29,31)           118.984          -DE/DX =    0.0001              !
 ! A70   A(30,29,33)           121.0828         -DE/DX =    0.0                 !
 ! A71   A(31,29,33)           119.9331         -DE/DX =    0.0                 !
 ! A72   A(27,30,29)           119.5678         -DE/DX =    0.0                 !
 ! A73   A(27,30,34)           118.5547         -DE/DX =    0.0001              !
 ! A74   A(29,30,34)           121.8775         -DE/DX =   -0.0001              !
 ! A75   A(28,31,29)           121.4465         -DE/DX =    0.0                 !
 ! A76   A(28,31,56)           121.4689         -DE/DX =    0.0                 !
 ! A77   A(29,31,56)           117.0846         -DE/DX =    0.0001              !
 ! A78   A(18,32,27)           121.081          -DE/DX =    0.0                 !
 ! A79   A(18,32,28)           119.9392         -DE/DX =    0.0                 !
 ! A80   A(27,32,28)           118.9797         -DE/DX =    0.0001              !
 ! A81   A(29,33,44)           116.9659         -DE/DX =    0.0001              !
 ! A82   A(30,34,37)           117.1164         -DE/DX =    0.0001              !
 ! A83   A(44,35,46)           121.441          -DE/DX =    0.0                 !
 ! A84   A(44,35,57)           117.0863         -DE/DX =    0.0001              !
 ! A85   A(46,35,57)           121.4727         -DE/DX =    0.0                 !
 ! A86   A(45,36,46)           118.9973         -DE/DX =    0.0                 !
 ! A87   A(45,36,48)           121.0782         -DE/DX =    0.0                 !
 ! A88   A(46,36,48)           119.9245         -DE/DX =    0.0                 !
 ! A89   A(34,37,44)           121.8753         -DE/DX =    0.0                 !
 ! A90   A(34,37,45)           118.5641         -DE/DX =    0.0                 !
 ! A91   A(44,37,45)           119.5606         -DE/DX =    0.0001              !
 ! A92   A(25,38,41)           119.9232         -DE/DX =    0.0                 !
 ! A93   A(25,38,43)           121.0784         -DE/DX =    0.0                 !
 ! A94   A(41,38,43)           118.9984         -DE/DX =   -0.0001              !
 ! A95   A(42,39,43)           119.569          -DE/DX =    0.0                 !
 ! A96   A(42,39,47)           121.8661         -DE/DX =    0.0                 !
 ! A97   A(43,39,47)           118.5649         -DE/DX =    0.0                 !
 ! A98   A(41,40,42)           121.44           -DE/DX =    0.0                 !
 ! A99   A(41,40,59)           121.4705         -DE/DX =   -0.0001              !
 ! A100  A(42,40,59)           117.0896         -DE/DX =    0.0                 !
 ! A101  A(38,41,40)           121.4404         -DE/DX =    0.0                 !
 ! A102  A(38,41,60)           117.0822         -DE/DX =    0.0                 !
 ! A103  A(40,41,60)           121.4774         -DE/DX =   -0.0001              !
 ! A104  A(39,42,40)           118.9944         -DE/DX =   -0.0001              !
 ! A105  A(39,42,48)           121.0805         -DE/DX =    0.0                 !
 ! A106  A(40,42,48)           119.9251         -DE/DX =    0.0                 !
 ! A107  A(26,43,38)           121.8724         -DE/DX =    0.0                 !
 ! A108  A(26,43,39)           118.5698         -DE/DX =    0.0                 !
 ! A109  A(38,43,39)           119.5578         -DE/DX =    0.0001              !
 ! A110  A(33,44,35)           119.9206         -DE/DX =    0.0                 !
 ! A111  A(33,44,37)           121.0821         -DE/DX =    0.0                 !
 ! A112  A(35,44,37)           118.9973         -DE/DX =    0.0                 !
 ! A113  A(36,45,37)           119.5651         -DE/DX =    0.0                 !
 ! A114  A(36,45,47)           121.8691         -DE/DX =    0.0                 !
 ! A115  A(37,45,47)           118.5658         -DE/DX =    0.0                 !
 ! A116  A(35,46,36)           121.4387         -DE/DX =    0.0                 !
 ! A117  A(35,46,58)           121.4844         -DE/DX =   -0.0001              !
 ! A118  A(36,46,58)           117.0769         -DE/DX =    0.0                 !
 ! A119  A(39,47,45)           117.1308         -DE/DX =    0.0                 !
 ! A120  A(36,48,42)           116.9752         -DE/DX =    0.0                 !
 ! D1    D(12,1,10,3)           -0.0001         -DE/DX =    0.0                 !
 ! D2    D(12,1,10,54)         179.9999         -DE/DX =    0.0                 !
 ! D3    D(18,1,10,3)          179.9998         -DE/DX =    0.0                 !
 ! D4    D(18,1,10,54)          -0.0001         -DE/DX =    0.0                 !
 ! D5    D(10,1,12,2)            0.0001         -DE/DX =    0.0                 !
 ! D6    D(10,1,12,16)         180.0            -DE/DX =    0.0                 !
 ! D7    D(18,1,12,2)         -179.9999         -DE/DX =    0.0                 !
 ! D8    D(18,1,12,16)           0.0            -DE/DX =    0.0                 !
 ! D9    D(10,1,18,32)        -179.9999         -DE/DX =    0.0                 !
 ! D10   D(12,1,18,32)           0.0001         -DE/DX =    0.0                 !
 ! D11   D(12,2,11,3)           -0.0001         -DE/DX =    0.0                 !
 ! D12   D(12,2,11,13)         179.9999         -DE/DX =    0.0                 !
 ! D13   D(14,2,11,3)          180.0            -DE/DX =    0.0                 !
 ! D14   D(14,2,11,13)           0.0            -DE/DX =    0.0                 !
 ! D15   D(11,2,12,1)            0.0            -DE/DX =    0.0                 !
 ! D16   D(11,2,12,16)        -179.9999         -DE/DX =    0.0                 !
 ! D17   D(14,2,12,1)          179.9999         -DE/DX =    0.0                 !
 ! D18   D(14,2,12,16)           0.0            -DE/DX =    0.0                 !
 ! D19   D(11,2,14,8)            0.0001         -DE/DX =    0.0                 !
 ! D20   D(12,2,14,8)         -179.9998         -DE/DX =    0.0                 !
 ! D21   D(11,3,10,1)            0.0            -DE/DX =    0.0                 !
 ! D22   D(11,3,10,54)         180.0            -DE/DX =    0.0                 !
 ! D23   D(53,3,10,1)         -180.0            -DE/DX =    0.0                 !
 ! D24   D(53,3,10,54)           0.0            -DE/DX =    0.0                 !
 ! D25   D(10,3,11,2)            0.0001         -DE/DX =    0.0                 !
 ! D26   D(10,3,11,13)        -179.9999         -DE/DX =    0.0                 !
 ! D27   D(53,3,11,2)         -179.9999         -DE/DX =    0.0                 !
 ! D28   D(53,3,11,13)           0.0001         -DE/DX =    0.0                 !
 ! D29   D(9,4,7,6)              0.0002         -DE/DX =    0.0                 !
 ! D30   D(9,4,7,17)          -179.9998         -DE/DX =    0.0                 !
 ! D31   D(51,4,7,6)          -179.9999         -DE/DX =    0.0                 !
 ! D32   D(51,4,7,17)            0.0001         -DE/DX =    0.0                 !
 ! D33   D(7,4,9,5)              0.0            -DE/DX =    0.0                 !
 ! D34   D(7,4,9,52)           180.0            -DE/DX =    0.0                 !
 ! D35   D(51,4,9,5)          -179.9999         -DE/DX =    0.0                 !
 ! D36   D(51,4,9,52)            0.0001         -DE/DX =    0.0                 !
 ! D37   D(9,5,8,6)              0.0002         -DE/DX =    0.0                 !
 ! D38   D(9,5,8,14)          -179.9999         -DE/DX =    0.0                 !
 ! D39   D(13,5,8,6)          -179.9999         -DE/DX =    0.0                 !
 ! D40   D(13,5,8,14)            0.0            -DE/DX =    0.0                 !
 ! D41   D(8,5,9,4)             -0.0002         -DE/DX =    0.0                 !
 ! D42   D(8,5,9,52)           179.9998         -DE/DX =    0.0                 !
 ! D43   D(13,5,9,4)           179.9999         -DE/DX =    0.0                 !
 ! D44   D(13,5,9,52)           -0.0001         -DE/DX =    0.0                 !
 ! D45   D(8,5,13,11)            0.0001         -DE/DX =    0.0                 !
 ! D46   D(9,5,13,11)         -179.9999         -DE/DX =    0.0                 !
 ! D47   D(8,6,7,4)             -0.0002         -DE/DX =    0.0                 !
 ! D48   D(8,6,7,17)           179.9998         -DE/DX =    0.0                 !
 ! D49   D(15,6,7,4)          -180.0            -DE/DX =    0.0                 !
 ! D50   D(15,6,7,17)           -0.0001         -DE/DX =    0.0                 !
 ! D51   D(7,6,8,5)              0.0            -DE/DX =    0.0                 !
 ! D52   D(7,6,8,14)          -179.9999         -DE/DX =    0.0                 !
 ! D53   D(15,6,8,5)           179.9998         -DE/DX =    0.0                 !
 ! D54   D(15,6,8,14)            0.0            -DE/DX =    0.0                 !
 ! D55   D(7,6,15,22)            0.0001         -DE/DX =    0.0                 !
 ! D56   D(8,6,15,22)         -179.9997         -DE/DX =    0.0                 !
 ! D57   D(4,7,17,21)          179.9999         -DE/DX =    0.0                 !
 ! D58   D(6,7,17,21)           -0.0001         -DE/DX =    0.0                 !
 ! D59   D(5,8,14,2)            -0.0001         -DE/DX =    0.0                 !
 ! D60   D(6,8,14,2)           179.9997         -DE/DX =    0.0                 !
 ! D61   D(2,11,13,5)           -0.0001         -DE/DX =    0.0                 !
 ! D62   D(3,11,13,5)          179.9999         -DE/DX =    0.0                 !
 ! D63   D(1,12,16,27)          -0.0001         -DE/DX =    0.0                 !
 ! D64   D(2,12,16,27)         179.9998         -DE/DX =    0.0                 !
 ! D65   D(6,15,22,19)         179.9997         -DE/DX =    0.0                 !
 ! D66   D(6,15,22,21)           0.0            -DE/DX =    0.0                 !
 ! D67   D(12,16,27,30)       -179.9998         -DE/DX =    0.0                 !
 ! D68   D(12,16,27,32)          0.0001         -DE/DX =    0.0                 !
 ! D69   D(7,17,21,22)           0.0001         -DE/DX =    0.0                 !
 ! D70   D(7,17,21,23)        -179.9998         -DE/DX =    0.0                 !
 ! D71   D(1,18,32,27)          -0.0001         -DE/DX =    0.0                 !
 ! D72   D(1,18,32,28)         179.9999         -DE/DX =    0.0                 !
 ! D73   D(24,19,22,15)        180.0002         -DE/DX =    0.0                 !
 ! D74   D(24,19,22,21)          0.0            -DE/DX =    0.0                 !
 ! D75   D(26,19,22,15)          0.0            -DE/DX =    0.0                 !
 ! D76   D(26,19,22,21)        179.9998         -DE/DX =    0.0                 !
 ! D77   D(22,19,24,20)         -0.0001         -DE/DX =    0.0                 !
 ! D78   D(22,19,24,25)        179.9999         -DE/DX =    0.0                 !
 ! D79   D(26,19,24,20)       -179.9999         -DE/DX =    0.0                 !
 ! D80   D(26,19,24,25)          0.0001         -DE/DX =    0.0                 !
 ! D81   D(22,19,26,43)       -179.9997         -DE/DX =    0.0                 !
 ! D82   D(24,19,26,43)          0.0001         -DE/DX =    0.0                 !
 ! D83   D(24,20,23,21)          0.0            -DE/DX =    0.0                 !
 ! D84   D(24,20,23,49)        179.9999         -DE/DX =    0.0                 !
 ! D85   D(50,20,23,21)       -180.0            -DE/DX =    0.0                 !
 ! D86   D(50,20,23,49)         -0.0001         -DE/DX =    0.0                 !
 ! D87   D(23,20,24,19)          0.0001         -DE/DX =    0.0                 !
 ! D88   D(23,20,24,25)       -179.9999         -DE/DX =    0.0                 !
 ! D89   D(50,20,24,19)        180.0001         -DE/DX =    0.0                 !
 ! D90   D(50,20,24,25)          0.0001         -DE/DX =    0.0                 !
 ! D91   D(17,21,22,15)         -0.0001         -DE/DX =    0.0                 !
 ! D92   D(17,21,22,19)       -179.9999         -DE/DX =    0.0                 !
 ! D93   D(23,21,22,15)       -180.0001         -DE/DX =    0.0                 !
 ! D94   D(23,21,22,19)          0.0001         -DE/DX =    0.0                 !
 ! D95   D(17,21,23,20)        179.9999         -DE/DX =    0.0                 !
 ! D96   D(17,21,23,49)          0.0            -DE/DX =    0.0                 !
 ! D97   D(22,21,23,20)         -0.0001         -DE/DX =    0.0                 !
 ! D98   D(22,21,23,49)        180.0            -DE/DX =    0.0                 !
 ! D99   D(19,24,25,38)         -0.0001         -DE/DX =    0.0                 !
 ! D100  D(20,24,25,38)        179.9999         -DE/DX =    0.0                 !
 ! D101  D(24,25,38,41)       -179.9999         -DE/DX =    0.0                 !
 ! D102  D(24,25,38,43)          0.0001         -DE/DX =    0.0                 !
 ! D103  D(19,26,43,38)         -0.0001         -DE/DX =    0.0                 !
 ! D104  D(19,26,43,39)        179.9998         -DE/DX =    0.0                 !
 ! D105  D(16,27,30,29)        179.9998         -DE/DX =    0.0                 !
 ! D106  D(16,27,30,34)          0.0            -DE/DX =    0.0                 !
 ! D107  D(32,27,30,29)         -0.0001         -DE/DX =    0.0                 !
 ! D108  D(32,27,30,34)       -179.9999         -DE/DX =    0.0                 !
 ! D109  D(16,27,32,18)          0.0            -DE/DX =    0.0                 !
 ! D110  D(16,27,32,28)        180.0001         -DE/DX =    0.0                 !
 ! D111  D(30,27,32,18)        179.9999         -DE/DX =    0.0                 !
 ! D112  D(30,27,32,28)         -0.0001         -DE/DX =    0.0                 !
 ! D113  D(32,28,31,29)          0.0            -DE/DX =    0.0                 !
 ! D114  D(32,28,31,56)        179.9999         -DE/DX =    0.0                 !
 ! D115  D(55,28,31,29)        180.0            -DE/DX =    0.0                 !
 ! D116  D(55,28,31,56)         -0.0001         -DE/DX =    0.0                 !
 ! D117  D(31,28,32,18)       -179.9998         -DE/DX =    0.0                 !
 ! D118  D(31,28,32,27)          0.0002         -DE/DX =    0.0                 !
 ! D119  D(55,28,32,18)          0.0001         -DE/DX =    0.0                 !
 ! D120  D(55,28,32,27)       -179.9999         -DE/DX =    0.0                 !
 ! D121  D(31,29,30,27)          0.0002         -DE/DX =    0.0                 !
 ! D122  D(31,29,30,34)        180.0            -DE/DX =    0.0                 !
 ! D123  D(33,29,30,27)        180.0002         -DE/DX =    0.0                 !
 ! D124  D(33,29,30,34)          0.0            -DE/DX =    0.0                 !
 ! D125  D(30,29,31,28)         -0.0001         -DE/DX =    0.0                 !
 ! D126  D(30,29,31,56)        180.0            -DE/DX =    0.0                 !
 ! D127  D(33,29,31,28)        179.9998         -DE/DX =    0.0                 !
 ! D128  D(33,29,31,56)         -0.0001         -DE/DX =    0.0                 !
 ! D129  D(30,29,33,44)          0.0001         -DE/DX =    0.0                 !
 ! D130  D(31,29,33,44)       -179.9999         -DE/DX =    0.0                 !
 ! D131  D(27,30,34,37)        179.9997         -DE/DX =    0.0                 !
 ! D132  D(29,30,34,37)         -0.0001         -DE/DX =    0.0                 !
 ! D133  D(29,33,44,35)        179.9999         -DE/DX =    0.0                 !
 ! D134  D(29,33,44,37)         -0.0001         -DE/DX =    0.0                 !
 ! D135  D(30,34,37,44)          0.0001         -DE/DX =    0.0                 !
 ! D136  D(30,34,37,45)       -179.9997         -DE/DX =    0.0                 !
 ! D137  D(46,35,44,33)       -179.9998         -DE/DX =    0.0                 !
 ! D138  D(46,35,44,37)          0.0001         -DE/DX =    0.0                 !
 ! D139  D(57,35,44,33)          0.0001         -DE/DX =    0.0                 !
 ! D140  D(57,35,44,37)       -179.9999         -DE/DX =    0.0                 !
 ! D141  D(44,35,46,36)          0.0            -DE/DX =    0.0                 !
 ! D142  D(44,35,46,58)       -180.0            -DE/DX =    0.0                 !
 ! D143  D(57,35,46,36)       -179.9999         -DE/DX =    0.0                 !
 ! D144  D(57,35,46,58)          0.0001         -DE/DX =    0.0                 !
 ! D145  D(46,36,45,37)          0.0001         -DE/DX =    0.0                 !
 ! D146  D(46,36,45,47)        180.0            -DE/DX =    0.0                 !
 ! D147  D(48,36,45,37)       -179.9999         -DE/DX =    0.0                 !
 ! D148  D(48,36,45,47)          0.0            -DE/DX =    0.0                 !
 ! D149  D(45,36,46,35)         -0.0002         -DE/DX =    0.0                 !
 ! D150  D(45,36,46,58)        179.9999         -DE/DX =    0.0                 !
 ! D151  D(48,36,46,35)        179.9999         -DE/DX =    0.0                 !
 ! D152  D(48,36,46,58)         -0.0001         -DE/DX =    0.0                 !
 ! D153  D(45,36,48,42)          0.0001         -DE/DX =    0.0                 !
 ! D154  D(46,36,48,42)       -179.9999         -DE/DX =    0.0                 !
 ! D155  D(34,37,44,33)          0.0            -DE/DX =    0.0                 !
 ! D156  D(34,37,44,35)       -180.0            -DE/DX =    0.0                 !
 ! D157  D(45,37,44,33)        179.9998         -DE/DX =    0.0                 !
 ! D158  D(45,37,44,35)         -0.0001         -DE/DX =    0.0                 !
 ! D159  D(34,37,45,36)        179.9999         -DE/DX =    0.0                 !
 ! D160  D(34,37,45,47)          0.0            -DE/DX =    0.0                 !
 ! D161  D(44,37,45,36)          0.0            -DE/DX =    0.0                 !
 ! D162  D(44,37,45,47)       -179.9999         -DE/DX =    0.0                 !
 ! D163  D(25,38,41,40)        179.9998         -DE/DX =    0.0                 !
 ! D164  D(25,38,41,60)         -0.0002         -DE/DX =    0.0                 !
 ! D165  D(43,38,41,40)         -0.0002         -DE/DX =    0.0                 !
 ! D166  D(43,38,41,60)        179.9999         -DE/DX =    0.0                 !
 ! D167  D(25,38,43,26)          0.0001         -DE/DX =    0.0                 !
 ! D168  D(25,38,43,39)       -179.9999         -DE/DX =    0.0                 !
 ! D169  D(41,38,43,26)        180.0001         -DE/DX =    0.0                 !
 ! D170  D(41,38,43,39)          0.0001         -DE/DX =    0.0                 !
 ! D171  D(43,39,42,40)         -0.0002         -DE/DX =    0.0                 !
 ! D172  D(43,39,42,48)        179.9998         -DE/DX =    0.0                 !
 ! D173  D(47,39,42,40)        179.9999         -DE/DX =    0.0                 !
 ! D174  D(47,39,42,48)         -0.0001         -DE/DX =    0.0                 !
 ! D175  D(42,39,43,26)       -179.9999         -DE/DX =    0.0                 !
 ! D176  D(42,39,43,38)          0.0            -DE/DX =    0.0                 !
 ! D177  D(47,39,43,26)          0.0            -DE/DX =    0.0                 !
 ! D178  D(47,39,43,38)        180.0            -DE/DX =    0.0                 !
 ! D179  D(42,39,47,45)          0.0002         -DE/DX =    0.0                 !
 ! D180  D(43,39,47,45)       -179.9997         -DE/DX =    0.0                 !
 ! D181  D(42,40,41,38)          0.0            -DE/DX =    0.0                 !
 ! D182  D(42,40,41,60)        180.0            -DE/DX =    0.0                 !
 ! D183  D(59,40,41,38)       -180.0            -DE/DX =    0.0                 !
 ! D184  D(59,40,41,60)          0.0            -DE/DX =    0.0                 !
 ! D185  D(41,40,42,39)          0.0001         -DE/DX =    0.0                 !
 ! D186  D(41,40,42,48)       -179.9999         -DE/DX =    0.0                 !
 ! D187  D(59,40,42,39)        180.0001         -DE/DX =    0.0                 !
 ! D188  D(59,40,42,48)          0.0001         -DE/DX =    0.0                 !
 ! D189  D(39,42,48,36)         -0.0001         -DE/DX =    0.0                 !
 ! D190  D(40,42,48,36)        179.9999         -DE/DX =    0.0                 !
 ! D191  D(36,45,47,39)         -0.0001         -DE/DX =    0.0                 !
 ! D192  D(37,45,47,39)        179.9997         -DE/DX =    0.0                 !
 --------------------------------------------------------------------------------
 GradGradGradGradGradGradGradGradGradGradGradGradGradGradGradGradGradGrad

 1\1\GINC-T151\Freq\RB3LYP\6-31G(d,p)\C36H12N12\LV15011\10-Nov-2025\0\\
 #N Geom=AllCheck Guess=TCheck SCRF=Check GenChk RB3LYP/6-31G(d,p) Freq
 \\C2N\\0,1\C,-4.9355958191,0.7226196182,0.0000352173\C,-2.8926897186,2
 .1556140818,0.0000264569\C,-5.1565692855,3.1609420295,0.0000394793\C,0
 .1590270228,6.0461532292,0.00003288\C,-1.84197594,4.6355402685,0.00003
 14109\C,0.420679231,3.582916144,0.0000231688\C,1.0162082976,4.88351341
 11,0.0000295858\C,-1.0312552773,3.4569576584,0.000024025\C,-1.19795290
 35,5.9284062367,0.0000335766\C,-5.7331683124,1.9269548984,0.0000397384
 \C,-3.7211423064,3.3218210603,0.0000340086\C,-3.5095520477,0.835255566
 5,0.0000272779\N,-3.1842833614,4.5547346364,0.0000350679\N,-1.56425903
 87,2.2374041526,0.0000201743\N,1.1557183308,2.4733285867,0.0000193126\
 N,-2.7199273986,-0.2362135357,0.0000225852\N,2.3523871051,5.0352706687
 ,0.0000331069\N,-5.5369079221,-0.4801537276,0.0000388595\C,3.313487240
 3,1.4274223719,0.0000257928\C,5.3157870009,2.8853288966,0.0000401662\C
 ,3.0935473951,3.9131819188,0.0000317191\C,2.4783845989,2.6218256053,0.
 0000238171\C,4.5353058067,4.0016763151,0.0000387598\C,4.7376308678,1.5
 616632211,0.0000353156\N,5.5369068356,0.4801555313,0.0000398695\N,2.71
 99262611,0.2362159735,0.0000225767\C,-3.3134880043,-1.4274193629,0.000
 027636\C,-5.3157878185,-2.8853268932,0.0000429378\C,-3.0935476597,-3.9
 131805419,0.0000386717\C,-2.4783845455,-2.621822986,0.0000281455\C,-4.
 5353069499,-4.0016739041,0.0000445623\C,-4.7376320155,-1.5616603143,0.
 0000363082\N,-2.3523886793,-5.0352680733,0.0000439435\N,-1.1557196797,
 -2.4733260391,0.0000228784\C,-0.1590283168,-6.0461508935,0.0000485713\
 C,1.8419737531,-4.6355380795,0.0000423933\C,-0.4206797832,-3.582914645
 ,0.0000302342\C,4.9355946058,-0.7226167212,0.0000379319\C,2.8926875973
 ,-2.1556115908,0.0000312813\C,5.1565681197,-3.1609395444,0.0000463632\
 C,5.7331670429,-1.9269528154,0.0000444456\C,3.7211405231,-3.3218193586
 ,0.000041434\C,3.5095503407,-0.8352527088,0.0000299527\C,-1.0162079497
 ,-4.8835107846,0.0000404687\C,1.0312537691,-3.4569560071,0.0000313231\
 C,1.1979521178,-5.9284039228,0.000049172\N,1.5642579325,-2.2374016608,
 0.0000245083\N,3.1842826112,-4.5547319365,0.0000461441\H,4.9692625986,
 4.9962759081,0.0000447414\H,6.3989157227,2.9514453956,0.0000461614\H,0
 .6434480394,7.0171813608,0.0000360945\H,-1.8425617642,6.8013407716,0.0
 000358283\H,-5.7552562247,4.0659904912,0.0000434428\H,-6.8114933272,1.
 8053853802,0.0000439985\H,-6.3989165393,-2.9514433785,0.000047519\H,-4
 .9692634802,-4.9962736811,0.0000519532\H,-0.643449908,-7.0171786977,0.
 0000551967\H,1.8425613317,-6.8013381568,0.000055004\H,5.7552548391,-4.
 0659881774,0.0000516094\H,6.8114920386,-1.8053832495,0.0000481949\\Ver
 sion=ES64L-G09RevD.01\State=1-A\HF=-2036.1737195\RMSD=8.463e-09\RMSF=4
 .882e-05\ZeroPoint=0.4158204\Thermal=0.4441997\Dipole=-0.0000009,-0.00
 00005,0.0000151\DipoleDeriv=-0.0763182,-0.58702,-0.0000024,0.1035567,0
 .2837816,-0.000003,0.0000002,0.000003,0.1497582,-0.3891705,-0.1397502,
 -0.0000017,0.2460403,0.4936177,0.000002,0.0000025,0.0000017,0.0955011,
 0.0857483,-0.1162585,-0.0000011,-0.190885,-0.0197114,-0.0000011,-0.000
 0012,0.0000002,-0.1195071,-0.1263112,0.0685816,-0.0000046,-0.0065264,0
 .1924509,-0.0000051,0.0000009,0.000001,-0.1194212,-0.0157902,-0.068432
 ,-0.0000051,0.6218122,0.2226439,0.0000015,0.0000019,0.0000005,0.149762
 ,0.3188285,0.1627129,-0.0000045,0.5486972,-0.2146057,0.,-0.0000006,0.0
 000005,0.095477,0.0850973,0.0444708,0.000002,-0.6459447,0.1216831,0.00
 00009,-0.0000029,0.0000002,0.1496977,0.4243458,-0.0512118,0.0000052,-0
 .4370291,-0.3190028,0.0000002,0.0000001,0.0000003,0.0954353,-0.1063252
 ,-0.1207505,0.000001,-0.0457293,0.1725888,0.0000012,-0.0000005,-0.0000
 005,-0.119485,0.1747497,-0.1164107,0.0000015,-0.0417406,-0.1086271,0.0
 000006,-0.0000016,-0.0000007,-0.1195268,0.3734644,0.4797364,0.,-0.2106
 758,-0.1660561,-0.000001,-0.0000022,-0.0000032,0.1497358,0.0780738,0.6
 368185,-0.0000013,0.2509094,0.0264636,0.0000037,0.000001,-0.0000001,0.
 0955015,-0.280992,0.0398724,0.0000032,0.039867,-0.3101448,-0.0000013,0
 .000001,0.0000031,-0.2797542,-0.0464952,0.1163575,0.0000005,0.1163874,
 -0.1315353,0.000002,-0.0000016,-0.0000043,-0.2010523,-0.0092199,-0.094
 9228,0.000001,-0.0949931,-0.1683027,0.0000015,0.0000005,-0.0000046,-0.
 2010513,-0.2110711,-0.02122,0.,-0.0212033,0.0331083,-0.0000027,-0.0000
 014,-0.0000054,-0.2010652,-0.2679365,-0.0325994,-0.0000015,-0.032702,-
 0.3226076,-0.0000024,0.0000002,0.0000032,-0.2797796,-0.3374313,-0.0072
 002,0.0000026,-0.0072934,-0.253669,0.0000018,0.0000008,0.000003,-0.279
 7922,0.226935,-0.6016661,-0.0000015,-0.2160005,-0.1222257,0.0000016,-0
 .000002,0.,0.0954783,0.1395957,0.1602694,-0.0000022,0.08517,-0.0734259
 ,0.000001,0.0000018,-0.0000007,-0.1195242,0.4024807,-0.3803738,0.00000
 35,0.3101573,-0.1957885,0.0000033,0.0000035,-0.0000037,0.1497095,-0.34
 50758,-0.0069714,0.0000007,-0.3927383,0.4494892,-0.0000022,-0.0000017,
 0.0000002,0.0954765,0.0312603,0.124634,0.0000005,0.1998725,0.0354837,0
 .0000014,0.000001,0.000002,-0.119433,-0.1477855,0.5111906,0.0000036,-0
 .1791349,0.3547484,-0.0000019,-0.0000019,0.000004,0.1497641,-0.3374313
 ,-0.0071996,-0.0000021,-0.0072943,-0.2536686,0.0000026,0.0000011,0.000
 0023,-0.2797895,-0.2110719,-0.0212163,0.0000007,-0.021205,0.033109,-0.
 0000002,0.0000013,-0.0000052,-0.2010651,0.2269361,-0.6016661,0.0000012
 ,-0.2160023,-0.1222255,0.0000004,0.0000019,0.0000038,0.0954819,0.13959
 54,0.1602691,-0.0000009,0.08517,-0.0734252,-0.0000029,-0.0000017,-0.00
 00005,-0.1195248,0.4024814,-0.3803731,-0.0000003,0.3101573,-0.1957833,
 -0.0000008,-0.0000042,0.0000027,0.1497102,-0.3450775,-0.0069697,0.0000
 021,-0.3927373,0.4494912,0.0000001,0.0000018,0.0000026,0.0954757,0.031
 2605,0.1246334,-0.0000022,0.1998719,0.0354827,0.0000029,-0.0000015,-0.
 0000035,-0.1194326,-0.147784,0.511194,-0.0000036,-0.1791343,0.3547494,
 -0.0000011,0.0000013,-0.000005,0.1497674,-0.2679346,-0.0325991,0.00000
 18,-0.0326998,-0.3226104,0.0000017,0.000001,0.0000027,-0.2797807,-0.00
 92201,-0.0949223,-0.0000001,-0.0949948,-0.1683044,-0.0000017,-0.000000
 4,-0.0000061,-0.20105,-0.1263116,0.0685814,0.0000024,-0.0065262,0.1924
 513,0.0000023,-0.0000013,-0.0000032,-0.1194212,-0.0157922,-0.0684336,0
 .0000018,0.6218128,0.2226437,-0.000002,-0.0000051,-0.0000022,0.1497596
 ,0.3188289,0.16271,-0.0000005,0.5486953,-0.2146054,0.000003,-0.0000013
 ,0.0000044,0.0954789,-0.0763158,-0.5870229,-0.0000029,0.1035559,0.2837
 813,-0.0000019,-0.0000009,-0.0000043,0.1497573,-0.38917,-0.1397526,-0.
 0000002,0.2460395,0.4936195,-0.0000006,-0.0000025,0.000001,0.095498,0.
 085748,-0.1162575,0.0000003,-0.1908842,-0.0197122,0.0000009,0.0000008,
 -0.0000016,-0.1195057,0.1747488,-0.1164101,-0.0000002,-0.0417403,-0.10
 86267,-0.0000019,0.000001,-0.0000004,-0.119527,0.3734661,0.4797351,0.0
 000005,-0.2106762,-0.1660526,-0.0000008,0.000002,0.0000023,0.149734,0.
 0780752,0.6368186,0.0000028,0.2509101,0.0264637,0.0000008,-0.0000016,0
 .0000038,0.095505,0.0850954,0.0444722,-0.0000003,-0.6459459,0.1216827,
 -0.0000027,0.000005,-0.0000014,0.149696,0.4243448,-0.051209,0.,-0.4370
 287,-0.3190006,0.0000002,0.0000012,0.0000046,0.0954346,-0.1063251,-0.1
 207499,-0.0000042,-0.0457304,0.1725879,0.0000007,0.0000006,-0.0000021,
 -0.1194829,-0.0464964,0.1163572,0.0000007,0.1163902,-0.1315373,-0.0000
 006,0.0000005,-0.0000061,-0.2010497,-0.28099,0.0398731,-0.0000012,0.03
 9866,-0.3101472,0.0000014,0.0000013,0.000003,-0.2797523,0.0362214,0.00
 23202,-0.000001,-0.0860632,-0.0297258,-0.0000006,-0.0000006,-0.0000001
 ,0.114667,-0.0490661,-0.0549374,0.0000016,0.0335026,0.0554771,-0.00000
 06,-0.0000007,0.0000002,0.1146961,0.0386539,-0.0840348,0.0000027,0.004
 3863,-0.0321063,0.0000032,0.,0.,0.114669,0.0230131,0.0937873,0.0000002
 ,0.0053146,-0.0164454,0.,0.0000003,0.0000003,0.1146879,0.0200159,0.006
 4422,0.0000004,0.0947689,-0.0135766,0.000002,0.0000005,0.0000004,0.114
 6835,-0.0495032,0.0365637,-0.0000011,-0.0517806,0.0560106,-0.0000007,0
 .000001,0.0000004,0.1146787,-0.0490658,-0.0549384,0.000001,0.0335026,0
 .0554766,0.0000012,0.0000009,0.0000011,0.1146953,0.0362212,0.00232,-0.
 0000003,-0.0860634,-0.0297264,-0.0000022,0.000001,0.0000017,0.1146664,
 0.0386542,-0.0840351,-0.0000017,0.0043862,-0.0321064,-0.0000027,0.0000
 003,0.0000017,0.1146689,0.023013,0.0937871,0.0000022,0.0053153,-0.0164
 448,-0.0000013,0.,0.0000015,0.1146875,0.0200155,0.0064422,0.,0.094769,
 -0.0135767,-0.0000006,-0.0000002,0.0000011,0.1146835,-0.0495033,0.0365
 642,0.0000014,-0.0517806,0.0560101,0.000001,-0.0000003,0.0000007,0.114
 6785\Polar=800.3135027,0.0307645,800.3091548,0.0000164,-0.0005779,134.
 7863137\PG=C01 [X(C36H12N12)]\NImag=0\\0.63016091,-0.00406346,0.699642
 66,-0.00000249,0.,0.16392142,-0.01941505,-0.01802612,0.00000005,0.7078
 2684,-0.02343154,0.01700221,0.00000010,0.02314047,0.64560747,0.0000000
 9,0.00000016,0.00068449,-0.00000261,0.00000111,0.15969375,0.03019001,-
 0.01352535,-0.00000012,-0.02354035,0.02362591,0.00000015,0.62649927,0.
 00322225,-0.05594979,-0.00000009,0.02389696,0.02314944,-0.00000005,0.0
 0626399,0.80676903,-0.00000012,0.,0.00230833,0.00000020,-0.00000007,0.
 00352338,-0.00000198,0.00000118,0.13095458,-0.00081086,0.00286060,-0.0
 0000001,-0.00866752,0.00426565,0.00000005,0.00321433,0.00154203,0.,0.7
 6714981,0.00029792,-0.00110173,0.,0.00322974,-0.00114303,0.,-0.0009830
 8,-0.00106177,0.,0.07464231,0.66640670,0.,0.,0.00001974,0.,0.,0.000002
 48,0.,0.,-0.00028364,0.00000008,0.00000161,0.13082297,-0.00553069,0.01
 139030,-0.00000003,-0.05201341,0.02170445,0.00000031,0.02094550,0.0072
 6667,-0.00000003,-0.03902771,-0.02631896,-0.00000003,0.67887618,0.0033
 4820,-0.00186603,0.00000001,0.02497238,-0.00146434,-0.00000010,-0.0009
 5173,-0.00457275,-0.00000004,-0.04304189,0.01327258,0.00000009,0.03204
 230,0.65049847,0.,-0.00000006,0.00050204,0.00000021,-0.00000003,-0.012
 84027,-0.00000003,-0.00000007,0.01127583,-0.00000008,0.00000006,0.0023
 2142,-0.00000137,0.00000158,0.16406550,0.00199691,-0.00244931,-0.00000
 002,0.02436357,-0.00132566,-0.00000010,0.00034671,0.00090833,0.,0.0320
 3606,0.00852803,0.00000004,-0.00994476,0.02871054,0.00000007,0.6813942
 8,0.00005872,-0.00054644,0.,-0.00435105,-0.00624007,-0.00000005,0.0005
 0486,0.00092821,0.,0.00820756,-0.03254596,-0.00000020,0.02332273,0.007
 77581,-0.00000001,-0.03865455,0.67221639,0.00000010,0.00000006,-0.0004
 5284,0.00000003,-0.00000008,0.01145309,0.,0.00000002,-0.00216088,0.000
 00005,-0.00000007,0.00356354,0.00000025,-0.00000004,0.00062385,0.00000
 009,0.00000213,0.15978542,0.00086050,-0.00154464,0.00000004,0.00594940
 ,-0.00168342,-0.00000005,-0.00275810,-0.00146936,0.00000002,-0.1252741
 6,0.06921864,0.00000023,0.01051248,0.01250102,0.00000004,-0.15805468,-
 0.02021118,-0.00000026,0.68870472,-0.00124571,0.00188172,0.00000003,-0
 .01062148,0.00231618,0.00000001,0.00143830,0.00030581,0.00000001,0.047
 16458,-0.23016987,-0.00000046,-0.00821167,-0.01388126,0.00000001,-0.05
 988276,-0.21654644,-0.00000081,-0.02555078,0.64048536,-0.00000004,-0.0
 0000002,0.00002876,-0.00000004,0.,0.00011302,0.,-0.00000001,0.00009680
 ,0.00000013,-0.00000051,-0.06338569,-0.00000005,0.00000003,-0.00331331
 ,-0.00000041,-0.00000055,-0.07759702,0.00000080,0.00000183,0.16411051,
 -0.00122373,0.00093689,0.00000003,-0.06300377,-0.05510811,0.00000005,-
 0.00348127,-0.00413423,0.,-0.01916968,0.00788634,0.00000005,-0.1736042
 0,0.06728107,0.00000060,-0.22246755,-0.01801853,-0.00000006,-0.0008139
 1,-0.03022797,-0.00000006,0.66817412,-0.00799651,0.00949053,0.00000004
 ,-0.08783015,-0.01066270,0.00000029,0.00810951,0.00149422,-0.00000001,
 0.00194442,-0.00075403,-0.00000002,0.02769044,-0.20110400,-0.00000050,
 -0.00210977,-0.10562615,-0.00000030,-0.02484110,-0.00158732,0.,0.03765
 040,0.68576293,-0.00000001,0.00000003,0.00011320,-0.00000006,0.0000001
 0,0.00000197,0.00000004,0.00000002,0.00054988,0.00000002,0.,0.00140384
 ,0.00000043,-0.00000080,-0.07771057,0.00000027,-0.00000022,-0.06205055
 ,-0.00000013,0.,0.00068190,-0.00000093,0.00000215,0.15955573,-0.000066
 99,-0.00245457,0.00000002,0.00218770,-0.00620906,-0.00000005,-0.002937
 61,-0.00318950,0.00000001,-0.44057549,-0.04782805,0.00000010,-0.108715
 83,-0.02597408,0.00000003,-0.01705970,-0.00477987,-0.00000002,-0.04908
 523,0.03209809,0.00000009,0.03289974,0.00330063,-0.00000006,0.78974627
 ,0.00045355,-0.00238783,0.,0.00603071,-0.00417942,-0.00000002,-0.00286
 110,-0.00072544,0.,-0.00547641,-0.13414423,-0.00000028,-0.04802493,-0.
 24693970,-0.00000040,-0.01086831,-0.00276392,0.,0.01540741,0.02348966,
 0.00000002,0.00308037,-0.03350951,-0.00000005,-0.05332819,0.64384022,-
 0.00000001,-0.00000001,0.00009720,0.,0.00000002,0.00055093,0.,0.000000
 01,0.00086150,0.00000031,-0.00000020,-0.05464440,-0.00000008,-0.000000
 36,-0.06342906,0.,-0.00000004,0.00133989,0.00000004,0.00000005,0.00227
 653,-0.00000001,-0.00000021,0.00355800,-0.00000069,0.00000119,0.131016
 81,-0.18052974,0.08928547,0.00000060,0.00044067,0.00079992,0.,-0.18734
 265,-0.14061663,0.00000031,-0.00010996,-0.00006470,0.,-0.00126806,-0.0
 0060596,0.00000002,-0.00017518,0.00032309,-0.00000003,-0.00004858,0.00
 001913,0.00000001,0.00038743,-0.00008206,-0.00000002,-0.00037685,0.000
 33066,0.,0.72628930,0.06718962,-0.17513107,-0.00000038,-0.00526671,-0.
 02024595,0.,-0.09819966,-0.38711333,-0.00000021,-0.00309113,0.00104425
 ,0.,-0.01623326,0.00268986,0.00000007,0.00117855,-0.00042037,0.,0.0025
 8158,-0.00186522,0.,0.00095689,-0.01020013,-0.00000003,0.00285628,0.00
 253137,0.,0.08996670,0.70676082,0.00000052,-0.00000052,-0.06346397,0.,
 -0.00000002,0.00132981,0.00000039,0.00000004,-0.05457010,0.,0.,-0.0000
 9039,-0.00000002,0.00000001,0.00000041,0.,0.,0.00001888,0.,0.,0.000019
 69,0.,-0.00000002,0.00000125,0.,-0.00000001,-0.00028398,-0.00000228,0.
 00000040,0.13094858,-0.00954891,0.01982369,0.00000003,-0.16725539,0.06
 501854,0.00000064,-0.25450635,0.02750858,0.00000081,-0.00320778,0.0001
 0313,0.,-0.05666928,-0.05249426,0.00000004,-0.00329449,-0.00191790,0.0
 0000002,0.00245545,0.00042976,0.,0.00769155,0.00299563,-0.00000005,0.0
 0047470,0.00653348,0.00000006,-0.01544866,-0.05168844,0.,0.67474060,-0
 .00093996,0.00608197,0.00000005,0.02547245,-0.20726720,-0.00000059,0.0
 0547317,-0.10137521,-0.00000009,-0.01552077,0.00463167,0.,-0.08586018,
 -0.00594294,0.00000035,0.01176561,-0.00234478,-0.00000012,0.00846899,-
 0.00985490,0.00000003,-0.00027017,-0.06114705,-0.00000018,0.01475411,0
 .01590469,-0.00000004,-0.03495802,-0.01034712,0.00000010,0.03347420,0.
 65478559,-0.00000002,-0.00000008,-0.00324816,0.00000039,-0.00000074,-0
 .07768071,0.00000079,-0.00000019,-0.06346043,-0.00000005,0.00000002,0.
 00000109,-0.00000016,0.00000022,-0.00074244,0.00000006,-0.00000001,0.0
 0061554,0.00000008,0.,0.00050058,-0.00000008,-0.00000016,-0.01287970,0
 .00000008,-0.00000002,0.01127509,0.00000002,0.00000019,0.00232183,-0.0
 0000208,0.00000129,0.16389811,-0.23553686,0.00832903,0.00000080,-0.125
 86576,-0.05354601,0.00000028,-0.00954652,-0.00753668,0.00000003,0.0000
 9183,0.00022507,0.,0.00071843,-0.00338572,-0.00000002,-0.00139554,-0.0
 0145703,0.00000002,-0.00101688,0.00116066,-0.00000001,-0.00446471,0.00
 619071,0.00000012,0.00131634,0.00015114,-0.00000001,-0.01944324,0.0270
 4352,0.00000019,0.02242121,0.01151781,-0.00000007,0.64865930,-0.031246
 93,-0.13937387,0.00000024,-0.03760222,-0.20213852,-0.00000019,-0.01362
 438,-0.01026527,0.00000005,0.00107960,-0.00068887,0.,0.01029604,-0.006
 36181,-0.00000006,-0.00606379,0.00135514,-0.00000004,-0.00134649,0.002
 46965,0.00000002,0.00921770,0.02259481,0.00000001,0.00055545,-0.000041
 45,0.00000001,0.02730482,0.01906172,-0.00000013,0.01690736,-0.02474872
 ,-0.00000009,-0.02674188,0.70500781,0.00000097,-0.00000004,-0.07771622
 ,0.00000041,0.00000003,-0.06205054,0.00000004,0.00000002,0.00133548,0.
 00000001,0.00000002,0.00001942,0.00000012,-0.00000005,0.00061556,0.,0.
 00000004,0.00047820,-0.00000006,-0.00000006,-0.00045282,0.00000005,-0.
 00000002,0.01145354,-0.00000003,0.00000003,-0.00215973,0.00000008,-0.0
 0000010,0.00351671,-0.00000011,-0.00000011,0.00066751,-0.00000259,0.00
 000051,0.15971944,0.00363342,-0.01085658,0.,0.06622192,-0.01432324,-0.
 00000027,-0.04054979,-0.05825270,0.,0.02115633,-0.00900860,-0.00000003
 ,-0.32522664,0.00898483,0.00000078,-0.00553947,0.00648972,0.00000003,-
 0.01020908,0.00951409,0.00000003,-0.04336110,0.06676459,0.00000045,-0.
 05349668,-0.03381741,0.00000002,-0.00562702,0.01907866,0.00000007,-0.1
 3292658,-0.05964796,0.00000023,-0.00411603,-0.00538935,-0.00000002,0.5
 6805054,0.00444273,-0.00973009,-0.00000004,0.02664523,-0.06252808,-0.0
 0000033,-0.03853023,-0.01982043,0.00000012,0.00927820,-0.00930816,-0.0
 0000005,0.01072188,-0.11446789,-0.00000027,-0.00486200,-0.00452105,0.0
 0000003,-0.00578589,0.00413131,-0.00000002,0.02575837,0.04703468,0.000
 00006,-0.05353877,-0.00689778,0.00000013,0.00078734,0.01749226,0.00000
 001,-0.06134876,-0.30654470,-0.00000041,0.00596807,-0.00595581,-0.0000
 0006,0.11136459,0.48658719,0.00000011,0.00000007,-0.00094690,0.0000000
 2,-0.00000024,0.02286736,0.00000003,0.00000020,-0.00435034,0.,0.,0.004
 22662,0.00000094,-0.00000025,-0.06170789,0.,-0.00000003,0.00489378,-0.
 00000010,-0.00000010,-0.00094788,0.00000027,-0.00000022,0.02289851,-0.
 00000006,0.00000012,-0.00435880,0.,-0.00000003,0.00422786,0.00000013,-
 0.00000044,-0.06164728,0.00000009,-0.00000005,0.00489326,-0.00000133,0
 .00000075,0.08924594,0.01080144,-0.01264811,-0.00000002,-0.35203686,0.
 00521263,0.00000150,-0.00322883,0.00516561,0.00000002,0.00588286,-0.00
 338160,-0.00000002,0.06734604,-0.01952118,-0.00000022,-0.05059279,-0.0
 4243506,-0.00000015,-0.01110303,0.01434450,0.00000007,-0.12964406,-0.0
 7133295,-0.00000020,-0.00489271,0.00081302,0.00000006,-0.00067151,0.00
 774668,0.,-0.04818921,0.06861289,0.00000061,-0.03871021,-0.04787939,0.
 00000001,-0.04739372,-0.03771924,-0.00000005,0.60661193,0.00632759,-0.
 01172519,-0.00000007,0.01003605,-0.10554306,-0.00000013,0.00020897,-0.
 00708336,-0.00000004,0.00533998,-0.00227787,0.,0.02634087,-0.06613629,
 -0.00000053,-0.04352806,-0.00566908,0.00000013,-0.00463464,0.01019892,
 -0.00000001,-0.07615939,-0.32778999,-0.00000102,0.00577469,-0.00542524
 ,0.,-0.00097613,0.00429035,0.00000003,0.02274358,0.04939129,-0.0000000
 7,-0.04679630,-0.01757706,0.00000023,-0.03772091,-0.01986189,0.0000001
 6,0.13343319,0.50906852,-0.00000009,-0.00000002,0.00361901,0.00000142,
 -0.00000006,-0.05837817,0.00000004,-0.00000007,0.00386727,0.,-0.000000
 04,-0.00072674,-0.00000024,-0.00000022,0.02533773,-0.00000009,0.000000
 04,-0.00571010,0.00000006,0.00000007,0.00362125,-0.00000006,-0.0000009
 9,-0.05831670,0.00000011,-0.00000013,0.00386810,0.00000004,-0.00000004
 ,-0.00072831,0.00000041,-0.00000021,0.02536985,0.,0.00000027,-0.005721
 58,0.00000002,0.00000010,-0.01595038,-0.00000167,0.00000137,0.07762383
 ,-0.00082590,0.00099088,-0.00000001,-0.00828625,0.00214107,0.00000007,
 0.00017905,0.00006282,-0.00000001,-0.00379279,-0.00051648,-0.00000005,
 -0.00881286,-0.01767894,-0.00000005,-0.16103973,0.10052934,0.00000041,
 0.06443452,0.04255587,0.00000028,-0.06389965,0.03226986,0.00000018,0.0
 0598079,0.00482140,0.,0.00008640,-0.00077769,0.,0.00078846,-0.00497943
 ,-0.00000004,0.00073450,0.00258773,0.00000003,0.00162014,0.00526394,0.
 00000008,0.00892662,0.01356578,-0.00000006,0.64985040,0.00057050,-0.00
 057903,-0.00000002,0.00640018,-0.00001184,-0.00000002,-0.00005930,-0.0
 0001836,0.,-0.00548655,-0.00652679,-0.00000002,0.00129944,0.00792051,-
 0.00000002,0.10550774,-0.29687226,-0.00000088,-0.00345646,-0.06342050,
 -0.00000044,0.03337274,0.00757232,0.00000004,-0.00390388,-0.00236590,0
 .00000002,-0.00014499,0.00049420,0.00000002,-0.00070669,0.00365690,0.,
 -0.00032455,-0.00189036,-0.00000001,-0.00225326,-0.00200733,0.00000002
 ,-0.01085284,-0.00673669,0.00000003,-0.10934261,0.46694007,-0.00000012
 ,-0.00000007,-0.00005149,-0.00000009,0.00000011,-0.00082762,0.,0.,0.00
 011851,-0.00000006,-0.00000012,0.00386889,-0.00000015,0.00000011,0.003
 61919,0.00000033,-0.00000096,-0.05838459,0.00000021,-0.00000016,0.0253
 2405,0.00000018,0.00000007,-0.00571369,0.00000003,-0.00000005,-0.00072
 926,0.00000007,-0.00000002,0.00000655,-0.00000002,0.,-0.00064881,-0.00
 000004,0.00000009,0.00034736,0.00000008,-0.00000008,0.00082199,0.00000
 003,-0.00000003,0.00175813,0.00000086,0.00000152,0.07772342,-0.0357096
 7,0.03310216,0.00000040,0.02031071,0.00256624,-0.00000015,-0.00108329,
 -0.00131971,-0.00000001,0.00014824,-0.00016759,-0.00000001,0.00148434,
 -0.00096094,0.00000001,-0.00085035,0.00025712,-0.00000005,-0.00010423,
 0.00030728,0.00000003,0.00176375,0.00272703,0.,0.00000606,0.00000415,-
 0.00000001,-0.00813581,-0.00390220,0.00000004,0.00066312,-0.00216018,0
 .00000005,-0.21449504,0.12505815,0.00000086,-0.00060795,-0.00143775,-0
 .00000006,-0.00406154,-0.00609522,0.00000003,0.00033735,-0.00029032,0.
 00000004,0.41790514,0.07905080,0.03690905,-0.00000047,0.00148440,-0.07
 661826,-0.00000008,0.00740531,0.00470189,-0.00000003,-0.00079987,0.000
 43205,0.,-0.00523601,0.00296185,0.00000004,0.00316600,-0.00030523,0.,0
 .00072697,-0.00130064,0.,-0.00153684,-0.01006331,-0.00000002,0.0001251
 4,0.00015476,0.,0.00105582,-0.00217744,0.00000002,-0.02113675,-0.00157
 221,0.00000008,0.12014739,-0.24292542,-0.00000078,0.00607720,0.0002223
 0,-0.00000003,0.01830777,0.00616492,-0.00000009,-0.00166127,0.00105299
 ,-0.00000003,-0.02429373,0.69779953,0.00000018,-0.00000028,0.02534756,
 -0.00000021,0.00000006,-0.00572402,0.,0.00000003,-0.00072889,0.,-0.000
 00005,0.00000668,-0.00000015,0.00000010,-0.00064830,-0.00000001,-0.000
 00007,0.00034741,0.00000009,0.00000009,-0.00005150,0.00000005,-0.00000
 001,-0.00082838,0.00000004,-0.00000008,0.00011856,0.00000014,0.,0.0038
 6637,0.,-0.00000005,0.00361868,0.00000087,-0.00000070,-0.05839136,0.00
 000008,-0.00000005,0.00082213,0.00000009,0.00000006,0.00176627,-0.0000
 0008,0.00000004,0.00014569,-0.00000207,-0.00000035,0.07760281,-0.00090
 680,0.00139733,-0.00000001,-0.00537382,0.00090123,0.00000005,0.0023939
 3,0.00130844,-0.00000002,-0.06693572,0.02332556,-0.00000002,-0.0091544
 7,-0.01184018,-0.00000002,-0.02520563,-0.07941215,-0.00000040,-0.31571
 839,-0.04377735,-0.00000067,-0.00528505,-0.00661796,-0.00000004,0.0203
 1488,0.01419434,0.,-0.00007459,-0.00229370,0.,-0.00219719,-0.00749485,
 -0.00000004,0.00051400,0.00143091,0.00000004,0.00854345,0.00528547,0.0
 0000004,0.00202498,0.00295926,-0.00000006,-0.05930421,0.03070548,-0.00
 000002,0.00015134,-0.00069761,-0.00000007,0.60424845,0.00042200,-0.000
 71041,-0.00000003,0.00227521,-0.00068282,0.00000002,-0.00096918,-0.000
 46158,0.,0.04303348,0.00654004,0.00000009,0.00346410,0.00307457,-0.000
 00002,-0.03826730,0.02869105,0.00000006,-0.04560532,-0.12422522,-0.000
 00042,0.00474727,-0.00482628,-0.00000002,-0.00409813,-0.00845179,-0.00
 000003,0.00003575,0.00094218,0.,0.00089708,0.00293284,-0.00000003,-0.0
 0042522,-0.00052358,0.00000005,-0.00354929,-0.00138229,0.00000008,-0.0
 0455704,-0.00241004,-0.00000007,0.03070889,-0.00792422,0.,-0.00008625,
 0.00027549,-0.00000009,-0.09135673,0.45148493,0.00000008,0.00000004,0.
 00001807,0.00000004,-0.00000003,-0.00066080,0.,0.00000001,0.00011020,0
 .00000006,0.00000010,-0.00435367,0.00000012,-0.00000009,-0.00094833,-0
 .00000025,-0.00000018,0.02286772,-0.00000080,-0.00000041,-0.06172538,-
 0.00000002,-0.00000006,0.00489442,0.,0.00000002,0.00422645,-0.00000004
 ,0.,-0.00000361,0.,-0.00000005,-0.00003636,0.00000002,-0.00000004,-0.0
 0015159,-0.00000006,0.00000006,-0.00016583,-0.00000005,0.00000001,0.00
 082204,0.00000002,0.00000013,-0.01591981,-0.00000005,0.,0.00000708,0.0
 0000106,0.00000107,0.08934062,-0.17553397,-0.09705921,0.00000069,-0.00
 548403,0.00482105,0.00000004,-0.00179964,0.00398837,0.00000003,0.00009
 391,-0.00002580,0.,0.00019921,0.00002010,0.00000002,-0.00007709,-0.000
 20949,-0.00000007,-0.00014666,0.00014410,0.00000003,-0.00021132,0.0003
 8806,-0.00000001,-0.00001513,-0.00008825,0.,0.01927569,0.01151131,-0.0
 0000011,-0.00107415,0.00050482,0.00000004,-0.01565552,-0.04176774,0.00
 000016,0.00034907,-0.00055247,-0.00000008,-0.00240248,-0.00293789,0.00
 000007,0.00000784,-0.00003408,0.00000009,0.00594831,0.00689854,-0.0000
 0008,0.00000458,-0.00010988,-0.00000006,0.41043634,-0.09529953,-0.2640
 1528,0.00000052,-0.00653267,-0.00458503,0.00000004,0.02227959,0.013660
 54,-0.00000007,-0.00235489,0.00077332,0.,-0.00836971,0.00053482,0.0000
 0004,0.00164648,0.00006774,-0.00000003,0.00111868,-0.00147091,0.,-0.00
 098557,-0.00584206,-0.00000003,0.00218926,0.00194823,0.,-0.00821954,-0
 .07964970,0.00000004,-0.01479489,-0.00501951,0.00000005,-0.08279019,0.
 01930075,0.00000046,0.00828079,0.00681263,-0.00000004,0.00457518,0.002
 01619,0.00000002,-0.00064497,0.00041873,0.00000004,0.00689847,-0.07317
 763,0.00000003,-0.00116250,0.00046984,-0.00000003,-0.02027465,0.644035
 70,0.00000075,0.00000063,-0.06159412,0.00000012,-0.00000007,0.00489307
 ,0.00000002,-0.00000001,0.00422732,0.00000003,0.00000002,-0.00000364,0
 .00000015,-0.00000009,-0.00003626,0.00000002,0.00000002,-0.00015156,-0
 .00000011,-0.00000009,0.00001809,-0.00000005,-0.00000001,-0.00066077,-
 0.00000005,0.00000004,0.00011013,-0.00000017,-0.00000006,-0.00435192,0
 .00000002,-0.00000008,-0.00094672,0.00000032,0.00000014,0.02288523,-0.
 00000007,0.00000007,-0.00016533,-0.00000003,0.00000006,0.00082190,0.00
 000006,0.00000003,0.00000702,-0.00000019,0.00000003,-0.01596661,0.0000
 0005,0.00000008,0.00003678,-0.00000165,-0.00000042,0.08922526,0.000074
 96,0.00001527,0.,-0.00059353,-0.00040050,0.,0.00013672,0.00029831,-0.0
 0000001,0.00139663,0.00010041,0.,-0.00094489,-0.00175797,0.00000001,-0
 .00104195,-0.01032642,-0.00000010,0.00168505,0.00478597,0.00000003,-0.
 00258977,0.00076784,0.00000002,0.00029095,-0.00005423,0.,0.00017764,-0
 .00018131,0.,-0.00052119,-0.00031699,0.00000002,-0.00022546,0.00004952
 ,0.,0.00065392,0.00063158,-0.00000001,0.00103954,0.00083610,-0.0000000
 4,-0.05416178,0.04041032,-0.00000007,0.00003961,0.00004962,-0.00000003
 ,-0.00407339,-0.00563352,-0.00000007,0.00001009,0.00013576,-0.00000001
 ,0.64143052,0.00000914,-0.00008699,0.00000003,0.00196212,0.00012987,-0
 .00000004,-0.00003648,-0.00014340,0.,-0.00030394,-0.00012182,0.,0.0007
 4891,0.00239833,0.00000002,-0.01336004,0.01917960,0.,-0.00889531,-0.00
 731972,-0.00000005,0.00537660,0.00254854,0.,-0.00090985,-0.00088702,0.
 ,-0.00006943,0.00011435,0.,0.00012995,0.00119854,0.00000003,0.00002989
 ,-0.00067885,-0.00000003,-0.00122517,-0.00066370,-0.00000006,-0.002074
 01,-0.00219761,0.00000005,0.04152411,-0.00216262,0.00000023,-0.0000565
 4,0.00064074,0.00000006,0.00573238,-0.00600572,-0.00000005,-0.00001086
 ,0.00002517,-0.00000007,0.01522152,0.71284032,0.00000007,0.00000003,0.
 00000168,0.00000003,-0.00000002,0.00006008,0.,0.,0.00001616,0.00000002
 ,0.00000003,-0.00215891,0.00000009,-0.00000005,-0.00045354,-0.00000003
 ,-0.00000002,0.01144696,-0.00000010,-0.00000006,0.00061624,-0.00000003
 ,0.00000002,0.00048050,-0.00000001,0.00000001,0.00001914,-0.00000003,0
 .,-0.00000500,0.00000001,-0.00000003,0.00015215,0.00000002,-0.00000004
 ,-0.00011220,-0.00000004,0.00000004,-0.00015175,-0.00000001,0.,0.00034
 747,-0.00000005,0.00000021,-0.00570706,-0.00000002,0.00000001,-0.00001
 166,0.00000002,-0.00000005,0.00489670,-0.00000004,-0.00000002,-0.00000
 167,0.00000277,0.00000044,0.15957173,-0.00011893,0.00002626,-0.0000000
 2,-0.00007356,0.00018996,0.00000002,-0.00013241,-0.00019521,0.,0.00024
 953,-0.00072983,0.,0.00033884,0.00036669,-0.00000002,0.00022278,0.0019
 0454,0.00000005,-0.00400677,-0.00056458,-0.00000002,0.00007319,-0.0002
 3711,0.00000002,-0.00061148,-0.00022445,0.,-0.00007711,0.00010445,0.,0
 .00028657,0.00015035,-0.00000002,0.00013337,0.00007270,0.00000003,-0.0
 0042778,-0.00027549,0.00000005,-0.00005832,0.00004836,-0.00000006,0.00
 062170,0.00033652,-0.00000006,0.00000299,-0.00004003,-0.00000006,-0.00
 156416,-0.00412942,0.,-0.00000013,-0.00003184,0.00000005,-0.00934088,-
 0.03226271,-0.00000003,0.75627075,-0.00033907,0.00059518,0.,-0.0008762
 8,0.00013542,0.,0.00086075,0.00053090,0.,-0.00325342,0.00190337,0.,-0.
 00219599,-0.00225211,0.,0.00086545,-0.01003243,-0.00000004,0.01505971,
 0.00542808,0.00000007,-0.00109268,-0.00066773,0.,0.00280153,0.00154541
 ,0.,0.00003631,-0.00088199,0.,-0.00096655,-0.00155463,0.,0.00018454,0.
 00015865,0.,0.00205374,0.00129500,0.,0.00068052,0.00063825,0.00000001,
 -0.00838713,0.00299345,0.,0.00000685,0.00000967,0.,-0.02241228,0.01343
 282,-0.00000005,0.00003655,-0.00045022,0.,-0.03203265,0.00869023,-0.00
 000018,-0.08098170,0.67701335,-0.00000003,0.,-0.00000143,-0.00000002,0
 .00000002,0.00000840,0.,0.,0.00000498,0.,0.,-0.00028439,-0.00000001,0.
 ,0.00001961,0.,0.,-0.00000003,0.,0.00000001,-0.00000048,0.00000001,0.,
 0.00001888,0.,-0.00000001,-0.00009047,0.00000001,0.,-0.00000144,0.,-0.
 00000002,-0.00000887,0.,0.00000001,-0.00000501,0.,0.,-0.00000365,0.000
 00001,0.,0.00000666,-0.00000001,0.00000002,-0.00072899,0.,0.,0.0000073
 8,-0.00000008,-0.00000001,0.00422609,0.00000002,0.,0.00000189,-0.00000
 017,-0.00000021,0.00357214,0.00000309,0.00000064,0.13103128,0.00062962
 ,-0.00064902,0.,0.00134147,0.00005496,-0.00000003,-0.00136751,-0.00065
 401,0.00000002,0.00455102,-0.00852585,-0.00000005,0.00360222,0.0019236
 6,-0.00000001,0.00620626,0.00879575,0.00000005,-0.07834564,0.03964389,
 -0.00000008,-0.00158721,0.00204820,-0.00000001,-0.00559206,-0.00189189
 ,0.00000001,0.00009313,0.00125471,0.00000001,0.00099464,0.00258402,0.,
 -0.00050169,-0.00042683,-0.00000002,-0.00316444,-0.00196317,-0.0000000
 1,-0.00009292,0.00005088,0.00000007,-0.03002451,-0.03650062,-0.0000002
 7,-0.00000737,0.00010462,0.00000007,-0.15905061,0.08733042,-0.00000004
 ,-0.00001428,0.00056953,-0.00000002,0.02585053,-0.00796602,0.00000014,
 -0.02972940,0.04826069,-0.00000003,0.68540759,-0.00030475,0.00100841,0
 .00000005,-0.00532443,0.00070663,0.,0.00124016,0.00092055,0.00000001,-
 0.01673617,0.01183533,0.,-0.00611565,-0.01100070,0.00000003,0.01207348
 ,-0.05958489,-0.00000030,0.07312946,0.01602030,0.00000035,-0.01164102,
 -0.00404162,-0.00000005,0.01373510,0.00701519,-0.00000001,0.00013784,-
 0.00136206,-0.00000002,-0.00141540,-0.00569043,0.00000005,0.00001967,0
 .00117940,-0.00000007,0.00642778,0.00390070,-0.00000011,0.00432186,0.0
 0453682,0.00000006,-0.08251763,0.03101965,-0.00000004,0.00020497,-0.00
 071890,0.00000009,0.08548054,-0.28087621,-0.00000060,0.00006612,-0.000
 75068,-0.00000012,-0.00260787,-0.02816648,-0.00000014,0.03152079,0.004
 17531,0.00000016,-0.02826352,0.64380729,-0.00000002,0.,0.00000831,-0.0
 0000003,0.,-0.00000924,0.,0.,-0.00002858,-0.00000007,-0.00000002,0.011
 27350,-0.00000004,-0.00000002,0.00050020,0.00000012,-0.00000016,-0.012
 90021,0.00000008,0.00000022,-0.00085407,-0.00000006,0.,0.00061627,0.00
 000004,0.00000002,-0.00000077,0.00000001,0.,-0.00000890,0.,0.,-0.00000
 924,0.,0.,0.00015210,0.00000003,0.,-0.00003638,0.00000003,0.00000002,-
 0.00064858,-0.00000050,-0.00000012,0.02533903,0.00000002,0.,-0.0000341
 0,-0.00000010,-0.00000051,-0.06171763,0.00000002,0.,-0.00001511,0.0000
 0009,-0.00000009,0.00066534,-0.00000008,0.00000022,0.00225320,0.000002
 08,0.00000178,0.16413409,0.00046256,-0.00077602,0.00000002,0.00715261,
 -0.00099529,-0.00000008,-0.00041361,-0.00046822,0.,0.00197184,-0.00496
 498,0.,0.00375268,0.01087332,0.00000003,-0.08545474,0.07469230,0.00000
 010,-0.04278031,-0.03214566,-0.00000019,0.02251080,0.00937700,-0.00000
 004,-0.00717359,-0.00428524,0.00000001,-0.00018379,0.00082102,0.,0.000
 42890,0.00527666,0.00000004,-0.00030745,-0.00203904,-0.00000004,-0.004
 69496,-0.00297706,-0.00000006,-0.00659320,-0.00754981,0.00000010,-0.34
 223261,-0.05120496,-0.00000096,-0.00026434,0.00138236,0.00000010,0.064
 38745,-0.00442020,0.00000004,-0.00002341,0.00051716,-0.00000007,-0.143
 68472,0.04777122,-0.00000052,-0.00093394,0.00867844,0.00000002,-0.1530
 3030,-0.01606132,-0.00000036,0.71396032,-0.00033090,-0.00016465,0.,0.0
 0212738,0.00068437,-0.00000003,-0.00011263,-0.00031439,0.,0.00727640,-
 0.00395531,0.,0.00193511,0.00451194,0.,0.04179583,0.01203643,0.0000001
 0,-0.02887575,-0.01062536,-0.00000008,0.00635570,-0.00437191,-0.000000
 07,-0.00532259,-0.00263942,0.,-0.00024559,0.00024598,0.,-0.00010326,0.
 00161984,0.,0.00032434,-0.00015679,0.,-0.00160237,-0.00136130,0.,-0.00
 328803,-0.00170810,0.00000004,-0.04622357,-0.11560533,-0.00000028,-0.0
 0005851,0.00005551,0.00000002,0.03673258,-0.06090037,-0.00000023,-0.00
 004394,0.00012844,0.,0.06369545,-0.18424705,0.00000011,0.00261326,-0.0
 1886990,-0.00000002,-0.05572837,-0.22166922,-0.00000089,-0.01124946,0.
 63970001,0.00000005,0.00000003,0.00003420,0.00000008,-0.00000005,-0.00
 051413,0.,0.,0.00009136,0.00000005,0.,0.00055167,0.00000007,0.,0.00011
 246,-0.00000008,0.00000025,-0.00009482,-0.00000026,-0.00000013,-0.0128
 9166,0.00000009,-0.00000005,0.01144766,-0.00000006,0.,-0.00000023,-0.0
 0000003,0.,0.00000840,0.,0.00000003,-0.00000901,0.00000003,-0.00000006
 ,0.00006021,-0.00000005,0.00000002,-0.00066091,-0.00000006,-0.00000001
 ,-0.00082812,-0.00000106,-0.00000031,-0.05839912,-0.00000004,0.0000000
 2,-0.00004775,0.00000030,-0.00000024,0.02285713,-0.00000004,0.,0.00000
 998,-0.00000032,-0.00000018,-0.06204390,0.,-0.00000003,0.00133047,-0.0
 0000058,-0.00000083,-0.07758724,0.00000213,0.00000143,0.15977435,-0.00
 033038,0.00056361,0.,-0.00050863,0.00007788,0.,0.00101227,0.00062058,0
 .,-0.00389583,0.00230636,0.,-0.00267282,-0.00196013,0.00000001,-0.0026
 5174,-0.00883658,-0.00000005,0.02126839,0.00546725,0.00000004,0.000601
 57,-0.00056229,0.00000001,0.00318378,0.00172527,0.,0.00000041,-0.00095
 346,0.,-0.00120076,-0.00161043,0.,0.00017228,0.00009141,0.,0.00236722,
 0.00146395,-0.00000002,0.00017358,0.00009289,0.,-0.00247100,0.00061218
 ,-0.00000001,-0.00000557,0.00004501,0.,-0.05638084,0.03216546,-0.00000
 010,0.00003080,-0.00042895,-0.00000002,-0.01305658,0.01296464,-0.00000
 008,-0.23412137,0.12483208,-0.00000066,-0.24432021,-0.03013461,-0.0000
 0092,-0.01434423,-0.03019617,-0.00000017,0.63467772,0.00034817,-0.0003
 3648,0.,0.00043374,-0.00021881,-0.00000002,-0.00043191,-0.00006570,0.0
 0000001,0.00263401,0.00023567,0.,0.00094907,0.00021979,0.,0.00340775,0
 .00067100,0.00000001,-0.00275235,-0.00488450,-0.00000007,-0.00096750,0
 .00067152,0.,-0.00079995,-0.00103015,0.00000001,0.00010236,0.00039839,
 0.00000001,0.00028303,0.00075302,0.,-0.00024309,-0.00017937,0.,-0.0008
 1365,-0.00043430,-0.00000001,-0.00002841,-0.00001269,0.00000006,-0.004
 35442,-0.00787530,-0.00000003,-0.00001156,0.00002832,0.00000006,0.0518
 7937,-0.00401725,0.00000020,-0.00000964,0.00025761,0.,0.00705713,-0.00
 687255,0.,0.16729161,-0.34054822,0.00000020,-0.05228647,-0.11125412,-0
 .00000041,-0.03045602,0.01368194,-0.00000009,-0.03659820,0.79920887,-0
 .00000001,-0.00000001,-0.00001235,0.,0.00000001,0.00009119,0.,0.,0.000
 00105,0.,0.,0.00086342,-0.00000005,0.00000001,0.00009670,0.,-0.0000000
 5,0.00055171,0.00000009,-0.00000002,0.01127376,0.00000001,0.,-0.002158
 67,0.00000002,0.,-0.00028418,0.,0.,0.00000498,-0.00000001,0.,-0.000028
 59,0.,0.00000002,0.00001614,0.00000003,0.,0.00011017,0.,0.,0.00011864,
 -0.00000003,-0.00000005,0.00386844,0.,-0.00000002,0.00000594,-0.000000
 06,0.00000012,-0.00435621,0.00000001,0.,-0.00000257,-0.00000007,0.0000
 0006,0.00140728,-0.00000055,-0.00000011,-0.05463929,-0.00000101,-0.000
 00025,-0.06339799,-0.00000022,-0.00000013,0.00358302,0.00000253,0.0000
 0186,0.13081049,-0.00005224,0.00003280,0.00000004,0.00025643,0.0004045
 3,-0.00000005,-0.00017640,-0.00032015,0.00000003,-0.00047400,-0.000119
 83,0.00000003,0.00041747,0.00099026,0.00000005,-0.00210509,0.00597094,
 -0.00000010,-0.00292353,-0.00353680,0.00000001,0.00151845,0.00030261,-
 0.00000006,-0.00028488,-0.00015543,0.,-0.00015064,0.00020879,0.,0.0004
 7940,0.00021268,0.00000004,0.00007436,0.00001893,-0.00000009,-0.000593
 10,-0.00040184,-0.00000012,-0.00055408,-0.00056660,0.00000016,0.009088
 57,-0.00269523,0.00000020,0.00001387,-0.00009848,0.00000017,0.00216354
 ,-0.00237135,-0.00000012,0.00001753,-0.00014575,-0.00000013,-0.2367064
 3,0.01486488,-0.00000123,-0.15356671,-0.06348876,-0.00000053,-0.005961
 34,-0.00128595,0.00000001,-0.02511660,0.01600939,-0.00000016,0.0258516
 1,0.01125109,0.00000019,0.63072319,0.00002181,-0.00036409,-0.00000001,
 0.00084932,0.00004158,0.00000002,-0.00053579,-0.00049091,-0.00000001,0
 .00278799,-0.00197899,-0.00000002,0.00128863,0.00232467,-0.00000001,-0
 .00296713,0.01036823,0.00000006,-0.01157591,-0.00447452,-0.00000006,0.
 00281025,-0.00006586,0.00000002,-0.00271789,-0.00162888,0.,-0.00015659
 ,0.00062714,0.,0.00055652,0.00115893,0.,0.00001275,-0.00008643,0.00000
 003,-0.00137651,-0.00102494,0.00000004,-0.00098623,-0.00085110,-0.0000
 0006,0.01628347,-0.00997992,-0.00000004,-0.00000338,0.00002463,-0.0000
 0006,0.01293313,-0.00824030,0.00000005,-0.00003495,0.00034652,0.000000
 04,-0.02477157,-0.13842317,-0.00000016,-0.08554881,-0.20203511,-0.0000
 0068,-0.02199895,0.00260454,-0.00000007,0.01061063,0.02295721,0.000000
 17,0.02802894,-0.05159890,0.00000004,-0.00851507,0.69882107,-0.0000000
 2,-0.00000001,0.00000842,0.,0.,0.00003422,0.,-0.00000001,-0.00001237,-
 0.00000001,0.,0.00009661,-0.00000004,0.00000003,0.00002878,-0.00000002
 ,0.00000003,0.00011220,0.,0.,0.00050079,0.00000002,0.,-0.00045346,0.,-
 0.00000001,0.00001964,0.,0.,-0.00000144,0.,0.00000003,0.00000827,0.,0.
 00000001,0.00000169,0.00000001,-0.00000002,0.00001814,0.,-0.00000001,-
 0.00005150,0.00000004,-0.00000004,0.00361844,0.00000002,0.,-0.00002439
 ,0.00000001,-0.00000004,-0.00094888,0.00000001,0.,-0.00000535,-0.00000
 108,0.00000010,-0.07775405,-0.00000062,-0.00000048,-0.06342007,-0.0000
 0004,0.00000004,-0.00330945,-0.00000011,0.00000009,0.00062244,0.000000
 19,-0.00000004,0.00229878,0.00000293,0.00000025,0.16409303,-0.00000353
 ,-0.00002608,-0.00000003,0.00006105,0.00003245,0.00000003,-0.00003682,
 -0.00004187,-0.00000002,0.00039862,-0.00018228,-0.00000002,0.00002792,
 0.00011779,-0.00000003,-0.00047930,0.00054864,0.00000008,-0.00120457,-
 0.00032441,-0.00000003,0.00017104,0.00022729,0.00000004,-0.00028921,-0
 .00015975,0.,-0.00001280,0.00003980,0.,0.00007188,0.00007728,-0.000000
 03,0.00003191,0.00001207,0.00000005,-0.00019735,-0.00000656,0.00000007
 ,-0.00009494,-0.00005569,-0.00000008,-0.00199690,0.00223848,-0.0000001
 2,-0.00003483,-0.00000232,-0.00000009,0.00184936,-0.00031381,0.0000000
 7,-0.00004266,0.00002874,0.00000008,-0.03568135,0.03210642,-0.00000027
 ,0.01691169,0.00535864,0.00000012,-0.00360540,-0.00026335,-0.00000002,
 -0.00573360,-0.00503372,-0.00000005,0.00309812,-0.00582644,-0.00000003
 ,-0.21084174,0.10628585,-0.00000090,0.41043592,0.00008446,0.00036740,0
 .,-0.00052884,0.00004368,-0.00000001,0.00037776,0.00032532,0.,-0.00245
 882,0.00153308,0.00000001,-0.00085680,-0.00164607,0.,0.00192409,-0.005
 57604,-0.00000004,0.00806547,0.00194221,0.00000004,-0.00162957,-0.0001
 8039,-0.00000002,0.00216894,0.00115683,0.00000001,0.00010822,-0.000437
 83,0.,-0.00042600,-0.00083665,0.,-0.00013446,0.00000363,-0.00000002,0.
 00104598,0.00067206,-0.00000003,0.00055513,0.00052181,0.00000006,-0.00
 527857,0.00160647,0.00000005,-0.00000232,-0.00000891,0.00000006,-0.009
 14955,0.00531003,-0.00000004,0.00002877,-0.00037253,-0.00000003,0.0731
 7670,0.03936541,0.00000041,0.02507592,-0.07726839,0.00000010,0.0150388
 9,-0.00246852,0.00000005,0.00632565,-0.00432507,0.00000002,-0.02410878
 ,0.00874753,-0.00000010,0.10448372,-0.22863838,0.00000056,-0.02027237,
 0.64403613,0.00000009,0.00000004,-0.00000537,0.00000006,-0.00000004,0.
 00000995,0.,0.00000001,-0.00000255,0.00000002,0.00000002,0.00011034,0.
 00000011,-0.00000007,0.00001812,0.00000001,0.00000003,-0.00066123,-0.0
 0000009,-0.00000007,-0.00003646,-0.00000004,0.,-0.00015179,-0.00000004
 ,0.00000004,-0.00000366,-0.00000004,0.,0.00000192,0.,-0.00000003,-0.00
 001515,0.00000003,-0.00000005,-0.00000166,-0.00000006,0.00000005,0.000
 03682,-0.00000004,0.00000002,0.00000710,0.00000004,0.00000003,0.000821
 99,-0.00000005,0.,0.00001894,0.00000005,0.00000007,-0.00016626,-0.0000
 0006,-0.00000002,0.00000504,-0.00000041,0.00000012,0.02288009,0.000000
 19,-0.00000002,-0.00436506,-0.00000004,-0.00000010,-0.00094903,-0.0000
 0012,-0.00000006,0.00489378,-0.00000003,-0.00000006,0.00422625,-0.0000
 0098,0.00000068,-0.06171118,0.00000180,-0.00000055,0.08922526,-0.00000
 344,-0.00000159,-0.00000003,-0.00003179,0.00004423,0.00000002,0.000000
 95,0.00000683,0.,0.00003222,-0.00002508,0.,0.00003536,-0.00007341,-0.0
 0000003,0.00161802,-0.00068301,0.00000006,0.00047927,0.00053026,-0.000
 00001,-0.00025648,-0.00024688,-0.00000001,-0.00000710,0.00009139,0.000
 00002,-0.00000268,-0.00000901,0.00000001,0.00002369,-0.00007530,-0.000
 00004,0.00005599,-0.00004572,0.00000002,0.00002207,0.00004243,0.000000
 06,0.00002896,0.00010547,0.,-0.00162049,0.00477403,-0.00000006,-0.0000
 4034,0.00004740,-0.00000001,0.00020032,0.00143452,0.00000005,-0.000034
 82,-0.00000236,0.00000007,-0.17365877,-0.11308009,-0.00000062,-0.00844
 838,0.00279703,-0.00000008,-0.00334843,0.00184996,-0.00000005,0.018142
 08,0.01396533,0.00000020,0.00011316,0.00051754,0.,-0.01460509,-0.04212
 331,-0.00000027,0.00594832,0.00689844,0.00000017,0.41790548,0.00009389
 ,0.00004156,-0.00000001,-0.00139587,-0.00017914,0.00000002,-0.00004976
 ,0.00002166,0.,-0.00014679,0.00012850,0.,-0.00049316,-0.00144082,0.,0.
 00357499,-0.00991406,0.,0.00479841,0.00396298,0.00000002,-0.00315794,-
 0.00090172,0.,0.00072341,0.00058727,0.,0.00003779,0.00001516,0.,0.0000
 2524,-0.00074991,-0.00000002,-0.00015124,0.00062367,0.00000001,0.00065
 306,0.00040469,0.00000003,0.00148529,0.00135805,-0.00000004,-0.0196619
 9,0.00381571,-0.00000010,0.00004739,-0.00056830,-0.00000004,-0.0060823
 9,-0.00058886,0.,-0.00000230,-0.00000889,0.00000003,-0.10819012,-0.283
 92081,-0.00000065,-0.00216116,-0.00186052,0.00000002,0.02083362,0.0024
 4723,0.00000009,0.01506679,-0.07442748,0.00000003,-0.00819799,0.003485
 17,-0.00000005,-0.08804554,0.01577002,-0.00000055,0.00689853,-0.073177
 65,0.00000008,-0.02429542,0.69779922,-0.00000012,-0.00000006,-0.000024
 35,-0.00000008,0.00000011,-0.00004767,0.,0.00000002,0.00000592,0.,-0.0
 0000007,0.00011889,-0.00000015,0.00000009,-0.00005144,-0.00000001,-0.0
 0000005,-0.00082970,0.00000008,0.00000010,-0.00064883,0.00000008,0.,0.
 00034755,0.00000003,-0.00000006,0.00000659,0.00000006,-0.00000002,0.00
 000734,0.,-0.00000003,-0.00003400,-0.00000003,0.00000008,-0.00001153,0
 .00000007,-0.00000006,0.00000710,0.00000005,0.00000002,0.00014599,-0.0
 0000009,0.00000004,0.00176342,0.00000002,-0.00000003,0.00011368,-0.000
 00006,-0.00000009,0.00082183,0.00000008,0.00000004,0.00001891,-0.00000
 067,-0.00000059,-0.05826084,-0.00000018,0.00000002,0.00386746,0.000000
 03,0.00000007,0.00361939,0.00000023,0.00000009,-0.00570644,0.00000002,
 0.00000006,-0.00072696,0.00000003,-0.00000037,0.02535304,0.00000005,0.
 00000020,-0.01596657,0.00000233,-0.00000089,0.07760280,-0.03411775,-0.
 03206449,0.00000013,0.00387243,0.01316581,0.00000006,-0.00627459,-0.00
 565181,0.,0.00038061,-0.00045223,0.,0.00314746,-0.00109855,-0.00000003
 ,-0.00072787,0.00047784,0.00000002,-0.00044782,0.00000221,-0.00000001,
 0.00181413,0.00408096,0.00000003,-0.00051323,-0.00007594,0.,-0.0025096
 9,0.00892075,0.00000001,0.00855483,0.00018212,-0.00000003,0.03806436,-
 0.00320997,-0.00000016,-0.00323128,-0.00213768,0.00000003,-0.00578161,
 -0.00358226,-0.00000003,0.00044464,-0.00031890,-0.00000005,-0.17365911
 ,-0.10819084,0.00000074,0.00026354,-0.00014903,0.00000003,-0.03568147,
 0.07317680,0.00000030,0.00065090,-0.00017743,0.00000001,-0.00017039,0.
 00029885,0.,0.00006408,0.00063722,0.,-0.00059768,-0.00052377,0.0000000
 3,0.00023883,0.00010342,0.,-0.00058327,-0.00028120,-0.00000001,0.00001
 014,0.00013579,0.00000003,0.00003965,0.00004965,-0.00000003,0.64142988
 ,-0.03532893,-0.01926625,0.00000018,0.01619012,0.01426122,-0.00000004,
 -0.00461397,-0.00353876,0.00000001,0.00061399,-0.00031856,0.,0.0042815
 6,-0.00109942,-0.00000004,-0.00188500,0.00026338,0.00000004,-0.0004429
 0,0.00074590,-0.00000001,0.00095575,0.00602531,0.00000002,-0.00043112,
 -0.00021446,0.,-0.00332440,0.00052889,0.00000002,0.00911636,-0.0002874
 9,-0.00000005,0.02961645,-0.11181061,-0.00000011,-0.00351135,-0.002823
 90,0.00000004,-0.00784771,-0.00252091,0.,0.00112276,-0.00065417,-0.000
 00003,-0.11308079,-0.28392247,0.00000097,0.00041263,-0.00015819,0.0000
 0003,0.03210646,0.03936537,-0.00000014,-0.00017740,-0.00073362,0.00000
 002,0.00003146,-0.00010910,0.,-0.00000842,0.00052163,-0.00000001,-0.00
 114530,0.00001290,0.00000001,-0.00011334,0.00004009,0.,0.00020880,-0.0
 0000295,0.,-0.00001084,0.00002517,0.00000003,-0.00005651,0.00064076,-0
 .00000002,0.01522268,0.71284097,0.00000021,0.00000022,-0.01290237,0.00
 000004,-0.00000018,0.01145381,0.00000004,0.00000003,0.00000113,0.,0.00
 000002,0.00000839,0.,-0.00000001,-0.00000891,0.,0.,0.00006012,0.,-0.00
 000001,0.00003420,-0.00000002,-0.00000004,-0.00051365,0.,0.00000003,0.
 00009133,0.,-0.00000004,0.00054931,-0.00000005,0.00000004,0.00011353,-
 0.00000022,0.00000013,0.00000015,0.,0.00000003,-0.00066095,0.00000002,
 0.00000001,-0.00082871,0.00000002,0.,-0.00004771,0.00000079,0.00000100
 ,-0.05826070,0.00000001,0.00000002,0.00000994,0.00000023,-0.00000044,0
 .02288020,0.00000001,-0.00000001,-0.00001772,0.00000001,0.,-0.00000712
 ,-0.00000003,0.,-0.00002003,-0.00000004,-0.00000003,0.00002663,0.,-0.0
 0000002,0.00000566,-0.00000004,0.00000002,0.00001446,0.00000002,-0.000
 00002,-0.00000167,0.,0.,-0.00001161,-0.00000251,-0.00000143,0.15957172
 ,-0.00092849,0.00535832,0.00000008,0.00016956,-0.00080863,-0.00000004,
 -0.00023465,0.00044973,0.00000001,0.00007703,0.00007442,0.,0.00009456,
 -0.00019041,0.00000001,-0.00018682,-0.00011190,-0.00000003,-0.00004159
 ,0.00024281,0.00000002,-0.00008808,0.00028010,-0.00000002,0.00012232,-
 0.00010668,0.,0.00134191,0.00071917,0.,-0.00044732,0.00013529,0.000000
 02,-0.00147131,0.00297087,-0.00000001,0.00010572,0.00001305,-0.0000000
 6,0.00003009,0.00002439,0.00000008,0.00003501,-0.00002655,0.00000008,-
 0.00844844,-0.00216118,0.00000016,0.00008934,-0.00003105,-0.00000006,0
 .01691164,0.02507600,-0.00000023,-0.00017036,0.00003150,-0.00000002,0.
 00005993,-0.00000760,0.00000001,-0.00012079,-0.00009960,0.00000001,0.0
 0006042,0.00016867,-0.00000004,-0.00000161,-0.00008280,0.00000002,0.00
 016150,0.00005279,0.00000002,-0.00000015,-0.00003180,-0.00000006,0.000
 00297,-0.00004006,0.00000007,-0.00934082,-0.03226266,0.00000010,0.7562
 7081,0.01358651,0.01730493,-0.00000006,-0.00040246,0.00110643,0.000000
 02,0.00297477,0.00238745,-0.00000001,-0.00098146,0.00032164,0.,-0.0020
 8386,-0.00054215,0.,0.00022292,0.00018007,0.00000003,0.00045793,-0.000
 62555,0.,-0.00007534,-0.00063918,0.00000002,0.00094583,0.00082452,0.,0
 .00038963,-0.00500309,-0.00000001,-0.00277294,-0.00200686,0.,-0.009266
 46,-0.00052458,0.00000008,0.00229042,0.00182677,0.00000003,0.00014438,
 0.00013050,-0.00000005,0.00003010,-0.00001245,-0.00000006,0.00279701,-
 0.00186041,-0.00000006,-0.00045060,0.00019909,0.00000002,0.00535867,-0
 .07726828,0.00000016,0.00029886,-0.00010910,0.00000003,-0.00000758,-0.
 00015259,-0.00000001,0.00022118,-0.00032028,0.,-0.00004835,0.00021810,
 0.00000003,-0.00014428,0.00008158,0.,-0.00030559,0.00027949,0.,0.00003
 657,-0.00045022,0.00000003,0.00000686,0.00000966,-0.00000007,-0.032032
 37,0.00869002,0.00000015,-0.08098297,0.67701368,0.00000003,-0.00000008
 ,0.01127348,-0.00000002,0.00000002,-0.00215905,0.,0.,-0.00028386,0.,0.
 ,0.00000499,-0.00000002,0.00000002,-0.00002864,0.,-0.00000002,0.000016
 12,0.00000003,0.00000003,-0.00001235,0.00000001,0.,0.00009125,0.,-0.00
 000002,0.00000106,0.,0.,0.00086175,0.,0.,0.00009708,0.00000001,0.00000
 001,0.00055175,0.,-0.00000002,0.00011014,0.,0.,0.00011864,-0.00000001,
 0.,0.00000594,0.00000006,-0.00000002,0.00386743,-0.00000001,-0.0000000
 3,-0.00000256,-0.00000012,0.00000005,-0.00436508,-0.00000001,0.0000000
 1,-0.00000712,0.,0.,0.00000045,0.00000001,0.00000004,-0.00000164,0.000
 00001,0.,0.00000565,0.,0.,0.00000093,0.00000005,-0.00000002,0.00000016
 ,-0.00000003,0.00000001,0.00000190,0.,-0.00000001,0.00000737,0.0000002
 1,0.00000017,0.00357221,-0.00000216,-0.00000175,0.13103126,-0.00916880
 ,-0.00929282,0.00000006,0.00112592,0.00295299,0.,-0.00239775,-0.001945
 47,0.,0.00055221,-0.00041364,0.,0.00132706,0.00024640,0.,-0.00005738,0
 .00006092,0.,-0.00030986,0.00011604,0.,0.00047158,0.00077119,0.,-0.000
 72995,-0.00033334,0.,-0.00094060,0.00295931,0.,0.00283538,0.00040557,0
 .,0.00986887,-0.00734453,-0.00000004,-0.00154779,-0.00102776,0.,-0.001
 31736,-0.00070739,0.00000001,-0.00000943,0.00000483,0.,-0.00334843,0.0
 2083350,-0.00000001,0.00024976,-0.00011996,0.,-0.00360538,0.01503877,0
 .,0.00006407,-0.00000843,0.,-0.00012080,0.00022117,0.,0.00002562,0.000
 46439,0.,-0.00009488,-0.00045961,0.,0.00018430,0.00004442,0.,0.0000512
 5,-0.00038620,0.,-0.00001428,0.00056954,0.,-0.00000738,0.00010465,0.,0
 .02585038,-0.00796575,-0.00000012,-0.02972929,0.04826034,-0.00000009,0
 .68540729,-0.00125353,0.00176781,-0.00000003,0.00044583,0.00032695,0.0
 0000002,0.00061668,0.00048327,0.00000002,-0.00004821,-0.00007581,0.,-0
 .00009732,0.00031139,-0.00000004,0.00006700,0.00004533,0.00000008,0.00
 012694,-0.00010650,-0.00000003,0.00032623,-0.00017324,0.,-0.00011794,0
 .00006286,0.,0.00005095,-0.00151150,0.,0.00010659,-0.00009234,-0.00000
 003,0.00159391,-0.00160284,0.00000003,-0.00005282,-0.00007045,0.000000
 08,-0.00028760,-0.00008789,-0.00000005,-0.00009020,0.00004755,-0.00000
 009,0.00184998,0.00244712,-0.00000004,-0.00023047,0.00011438,0.0000000
 6,-0.00026336,-0.00246871,0.00000011,0.00063722,0.00052162,0.00000003,
 -0.00009961,-0.00032028,-0.00000004,0.00046444,0.00021326,-0.00000002,
 0.00003014,-0.00049153,0.00000005,-0.00031355,0.00025680,0.00000001,-0
 .00070018,0.00044833,-0.00000002,0.00006611,-0.00075065,0.00000008,0.0
 0020495,-0.00071887,-0.00000007,-0.00260792,-0.02816625,0.00000016,0.0
 3152089,0.00417517,-0.00000013,-0.02826661,0.64380839,0.,0.,0.00050068
 ,-0.00000002,0.,-0.00045290,0.,0.,0.00001972,-0.00000001,0.,-0.0000014
 3,-0.00000003,0.00000001,0.00000828,-0.00000001,0.,0.00000167,0.000000
 02,0.00000001,0.00000842,0.00000001,0.,0.00003420,0.00000002,0.,-0.000
 01235,0.00000001,0.,0.00009663,0.,0.00000002,0.00002872,-0.00000003,0.
 00000004,0.00011364,0.00000002,-0.00000001,0.00001812,0.00000001,0.,-0
 .00005156,0.,-0.00000001,-0.00002440,0.00000005,-0.00000007,0.00361935
 ,0.,-0.00000002,-0.00000533,0.00000003,-0.00000002,-0.00094901,0.,0.00
 000001,-0.00002003,-0.00000001,0.,-0.00000164,0.,0.00000003,0.00000420
 ,0.00000001,0.,0.00001447,0.,0.,0.00000016,0.00000004,-0.00000001,0.00
 001481,-0.00000002,0.,-0.00001510,-0.00000002,0.,-0.00003412,-0.000000
 07,0.00000013,0.00066539,-0.00000002,-0.00000017,0.00225324,-0.0000016
 0,-0.00000300,0.16413410,-0.00758251,-0.00550803,0.00000003,0.00392441
 ,0.00299316,-0.00000004,-0.00105883,-0.00041615,0.00000001,0.00004087,
 -0.00001938,0.,0.00093535,-0.00040290,-0.00000003,-0.00059994,0.000166
 81,0.00000003,-0.00005993,0.00005869,-0.00000002,0.00054818,0.00154492
 ,-0.00000001,-0.00002569,0.00002291,0.00000002,-0.00000686,0.00020992,
 0.00000001,0.00167846,-0.00020940,-0.00000004,0.00915585,-0.01707690,0
 .,-0.00069945,-0.00073018,0.00000003,-0.00221537,-0.00088421,0.0000000
 6,0.00056733,-0.00025035,0.00000002,0.01814216,0.01506689,-0.00000011,
 0.00006373,-0.00003052,0.00000001,-0.00573354,0.00632563,0.00000007,-0
 .00059764,-0.00114527,0.,0.00006049,-0.00004832,0.00000001,-0.00009487
 ,0.00003025,0.,-0.00068485,0.00031105,0.,-0.00000988,-0.00002725,0.,0.
 00067062,-0.00022987,0.,-0.00002345,0.00051711,0.00000002,-0.00026433,
 0.00138234,0.00000003,-0.14368435,0.04777057,0.00000033,-0.00093394,0.
 00867836,0.,-0.15302982,-0.01606030,0.00000030,0.71396319,0.00817555,0
 .00194843,-0.00000006,-0.00161300,-0.00396371,0.,0.00044023,0.00046318
 ,0.,-0.00013130,0.00025109,0.,-0.00084949,-0.00025773,0.,0.00018632,-0
 .00030453,0.00000002,0.00006486,0.00004793,0.,-0.00081835,-0.00101186,
 0.,0.00035774,0.00001909,0.,0.00061279,0.00128059,0.,-0.00271724,-0.00
 022602,-0.00000001,-0.01404942,0.00895967,0.00000015,0.00112627,0.0006
 8992,0.00000002,0.00202478,0.00105858,0.,-0.00014393,0.00011216,-0.000
 00002,0.01396534,-0.07442733,0.00000005,0.00011583,-0.00002814,0.00000
 001,-0.00503374,-0.00432492,0.00000008,-0.00052377,0.00001291,0.000000
 02,0.00016872,0.00021811,0.,-0.00045962,-0.00049150,0.,0.00031105,0.00
 060202,0.,0.00023970,-0.00026943,0.,0.00041535,-0.00008460,0.,-0.00004
 392,0.00012840,0.,-0.00005848,0.00005549,-0.00000002,0.06369503,-0.184
 24637,0.00000012,0.00261318,-0.01886954,0.00000007,-0.05572766,-0.2216
 6730,0.00000116,-0.01124951,0.63969737,0.00000008,0.00000007,0.0006137
 9,0.00000002,-0.00000002,0.00047862,0.,0.,0.00001889,0.00000002,0.0000
 0003,-0.00000497,0.00000009,-0.00000004,0.00015217,0.00000002,0.000000
 02,-0.00011215,-0.00000008,-0.00000007,0.00000167,-0.00000004,0.,0.000
 06007,-0.00000002,0.00000001,0.00001615,-0.00000004,0.,-0.00216072,0.,
 -0.00000003,-0.00045305,0.00000008,0.,0.01145131,-0.00000004,0.0000000
 4,-0.00015162,-0.00000001,0.,0.00034741,0.00000003,0.,-0.00001160,-0.0
 0000021,0.00000013,-0.00570647,0.00000004,0.00000006,-0.00000168,0.000
 00006,-0.00000005,0.00489376,0.,-0.00000004,0.00002664,0.00000004,0.,0
 .00000564,-0.00000002,-0.00000008,0.00001447,-0.00000004,0.,-0.0000177
 2,-0.00000001,0.,-0.00000712,-0.00000011,0.00000003,-0.00002005,0.0000
 0006,-0.00000003,0.00000995,0.00000004,0.00000001,-0.00004774,0.000000
 19,0.00000041,-0.06204394,-0.00000001,0.00000008,0.00133041,0.00000068
 ,0.00000107,-0.07758756,-0.00000211,-0.00000248,0.15977435,0.00899261,
 0.01030776,-0.00000006,-0.00100935,-0.00069500,0.00000002,0.00212229,0
 .00180165,-0.00000001,-0.00074173,0.00027918,0.,-0.00160095,-0.0002763
 0,0.,0.00023892,0.00014629,0.00000001,0.00041005,-0.00053289,0.,-0.000
 11027,-0.00086303,0.00000002,0.00066722,0.00056852,-0.00000001,0.00042
 279,-0.00331781,-0.00000001,-0.00253623,-0.00114553,0.,-0.00792774,0.0
 0384511,0.00000005,0.00166529,0.00128854,0.,0.00079101,0.00036998,-0.0
 0000005,-0.00000196,0.00000850,-0.00000004,0.00011316,-0.00819784,-0.0
 0000004,-0.00039586,0.00018127,0.00000001,0.00309810,-0.02410866,0.000
 00006,0.00023883,-0.00011333,0.,-0.00000163,-0.00014427,0.,0.00018430,
 -0.00031359,0.,-0.00000987,0.00023972,0.00000002,-0.00013239,0.0000628
 7,0.,-0.00025794,0.00027105,0.,0.00003081,-0.00042896,0.00000001,-0.00
 000558,0.00004500,-0.00000004,-0.01305639,0.01296439,0.00000006,-0.234
 12182,0.12483313,0.00000021,-0.24431904,-0.03013469,0.00000086,-0.0143
 4424,-0.03019573,0.00000021,0.63467693,-0.00531617,-0.00756600,0.00000
 005,0.00015799,0.00041230,-0.00000004,-0.00122397,-0.00118753,0.000000
 02,0.00034738,-0.00021736,0.00000002,0.00084004,0.00033256,0.00000001,
 0.00003418,0.00005327,-0.00000006,-0.00016711,0.00006631,0.00000002,0.
 00020345,0.00017225,-0.00000005,-0.00048757,-0.00026878,0.00000002,-0.
 00079251,0.00172909,0.00000002,0.00141710,0.00062369,0.00000001,0.0048
 8242,-0.00188135,-0.00000008,-0.00104047,-0.00079798,-0.00000007,-0.00
 026175,-0.00021092,0.00000013,-0.00003835,0.00001427,0.00000014,0.0005
 1759,0.00348514,0.00000011,0.00011291,-0.00005490,-0.00000007,-0.00582
 640,0.00874750,-0.00000004,0.00010343,0.00004014,-0.00000005,-0.000082
 84,0.00008158,0.00000002,0.00004441,0.00025683,0.00000001,-0.00002719,
 -0.00026942,-0.00000005,0.00006287,0.00003962,0.00000002,-0.00004941,-
 0.00018350,0.00000001,-0.00000969,0.00025762,-0.00000007,-0.00001163,0
 .00002831,0.00000014,0.00705702,-0.00687246,-0.00000003,0.16729237,-0.
 34054935,0.00000058,-0.05228620,-0.11125409,0.00000046,-0.03045602,0.0
 1368182,-0.00000001,-0.03659942,0.79920981,-0.00000004,-0.00000002,0.0
 0000148,-0.00000001,0.00000002,0.00001936,0.,0.,-0.00009042,0.,0.,-0.0
 0000144,-0.00000001,0.,-0.00000883,0.,0.,-0.00000500,0.,0.00000001,-0.
 00000142,0.00000001,0.,0.00000840,0.,-0.00000002,0.00000498,0.,0.,-0.0
 0028377,0.,-0.00000002,0.00001976,0.,0.,0.00000316,0.,0.,-0.00000365,0
 .,0.,0.00000671,-0.00000001,0.,0.00000741,0.,0.00000002,-0.00072694,0.
 ,-0.00000001,0.00000190,0.00000004,0.00000009,0.00422621,0.,0.,0.00000
 565,-0.00000001,0.,0.00000094,0.,0.,0.00000016,0.00000002,0.,-0.000007
 12,0.,0.,0.00000045,0.00000003,0.,-0.00000163,-0.00000001,0.00000001,-
 0.00000257,0.,0.,0.00000596,0.00000003,-0.00000002,0.00140724,0.000000
 03,0.00000082,-0.05463921,0.00000096,0.00000031,-0.06339813,0.00000030
 ,0.00000010,0.00358308,-0.00000193,-0.00000319,0.13081053,0.04122207,0
 .02949536,-0.00000033,-0.00685042,-0.00971561,0.00000008,0.00934898,0.
 00827131,-0.00000001,-0.00074101,0.00044306,0.00000001,-0.00452495,0.0
 0060343,0.,0.00085002,-0.00047430,0.00000009,0.00065602,-0.00031478,-0
 .00000004,-0.00091903,-0.00449903,-0.00000002,0.00083952,0.00043319,0.
 ,0.00282753,-0.01610717,0.00000004,-0.01062921,-0.00091468,0.,-0.04516
 820,0.03065621,0.00000024,0.00450678,0.00362287,0.00000008,0.00540258,
 0.00231557,-0.00000008,-0.00053551,0.00039765,-0.00000011,-0.01460505,
 -0.08804557,0.00000021,-0.00045908,0.00022892,0.00000007,-0.21084258,0
 .10448477,0.00000073,-0.00058321,0.00020887,0.00000004,0.00016146,-0.0
 0030556,-0.00000002,0.00005123,-0.00070023,-0.00000002,0.00067065,0.00
 041541,0.00000006,-0.00025793,-0.00004950,-0.00000002,0.00049048,0.000
 29450,-0.00000002,0.00001749,-0.00014582,0.00000007,0.00001382,-0.0000
 9849,-0.00000009,-0.23670580,0.01486495,0.00000101,-0.15356639,-0.0634
 8847,0.00000058,-0.00596119,-0.00128597,-0.00000001,-0.02511655,0.0160
 0919,0.00000008,0.02585146,0.01125115,-0.00000017,0.63072304,-0.003932
 48,-0.10387603,0.00000014,0.00396563,0.00120255,-0.00000002,-0.0073528
 6,-0.00792427,0.,0.00155966,-0.00052751,-0.00000001,0.00460173,-0.0001
 7051,0.,-0.00092095,-0.00017237,-0.00000001,-0.00065838,0.00098220,0.0
 0000001,0.00088133,0.00296528,0.00000003,-0.00146098,-0.00128719,0.,-0
 .00789060,0.01354278,0.00000006,0.00712423,0.00323129,0.,0.02733808,-0
 .00828409,-0.00000017,-0.00476787,-0.00377147,0.,-0.00195695,-0.000955
 97,-0.00000003,0.00029735,-0.00019124,-0.00000002,-0.04212338,0.015769
 93,0.00000026,0.00073214,-0.00030618,0.,0.10628699,-0.22863997,-0.0000
 0036,-0.00028121,-0.00000298,0.,0.00005282,0.00027948,0.,-0.00038620,0
 .00044833,0.,-0.00022988,-0.00008461,0.,0.00027105,-0.00018347,0.,0.00
 029450,-0.00025170,0.,-0.00003495,0.00034653,0.,-0.00000335,0.00002464
 ,-0.00000001,-0.02477169,-0.13842298,0.00000031,-0.08554837,-0.2020344
 0,0.00000082,-0.02199869,0.00260474,0.00000003,0.01061069,0.02295699,-
 0.00000017,0.02802866,-0.05159876,0.00000007,-0.00851651,0.69882168,-0
 .00000031,-0.00000008,-0.00074468,0.00000002,0.00000006,0.00061584,-0.
 00000005,-0.00000005,0.00000073,-0.00000002,0.,-0.00000883,-0.00000004
 ,0.00000003,-0.00000899,-0.00000001,0.00000001,0.00015219,0.00000004,0
 .00000003,0.00000828,0.00000002,0.00000003,-0.00000889,0.00000001,0.,-
 0.00002865,0.00000007,0.00000007,0.01127391,0.00000005,0.00000006,0.00
 050252,0.00000014,-0.00000017,-0.01281787,0.,-0.00000005,-0.00003623,0
 .,-0.00000004,-0.00064817,-0.00000002,-0.00000003,-0.00003394,0.000000
 35,0.00000051,0.02535320,-0.00000001,-0.00000003,-0.00001512,0.0000006
 8,-0.00000024,-0.06171107,0.00000002,0.00000003,0.00001445,-0.00000002
 ,0.,0.00000017,0.,0.00000005,0.00001481,0.00000003,0.,-0.00002007,0.,0
 .,-0.00000162,0.00000003,0.,0.00000421,-0.00000003,0.,-0.00000537,-0.0
 0000004,0.,-0.00002433,0.00000097,0.,-0.07775426,0.00000069,0.00000066
 ,-0.06342016,0.00000007,-0.00000007,-0.00330954,0.00000006,-0.00000012
 ,0.00062249,-0.00000021,0.00000017,0.00229884,-0.00000262,-0.00000108,
 0.16409310,0.00406867,0.00613725,-0.00000001,-0.00059160,-0.00134993,-
 0.00000001,0.00163484,0.00146544,0.,-0.00033991,0.00022782,0.,-0.00084
 210,-0.00009156,0.00000001,-0.00003237,-0.00011086,-0.00000002,0.00034
 258,-0.00004223,0.00000001,-0.00011435,-0.00046503,-0.00000001,0.00039
 092,0.00022129,0.,0.00054717,-0.00251395,0.,-0.00168704,-0.00023029,0.
 00000002,-0.00417736,0.00327569,0.,0.00090476,0.00064306,-0.00000004,0
 .00061015,0.00029747,0.00000004,-0.00001365,-0.00001009,0.00000005,0.0
 0020030,-0.00608240,0.00000005,-0.00031531,0.00012856,-0.00000003,0.00
 184934,-0.00914952,-0.00000003,0.00026354,0.00041263,-0.00000001,0.000
 08938,-0.00045060,0.,0.00024975,-0.00023046,0.00000001,0.00006373,0.00
 011583,-0.00000003,-0.00039587,0.00011293,0.,-0.00045909,0.00073213,0.
 ,0.00000458,-0.00116251,-0.00000004,0.00015136,-0.00069764,0.00000005,
 -0.00407338,0.00573237,-0.00000002,-0.00156420,-0.02241223,0.00000011,
 -0.15905203,0.08548269,-0.00000019,0.06438753,0.03673258,-0.00000041,-
 0.05638083,0.05187946,-0.00000014,0.00216356,0.01293304,-0.00000003,0.
 60424458,-0.00225318,-0.00333074,0.00000004,0.00050617,0.00058141,-0.0
 0000003,-0.00086343,-0.00076677,0.,0.00015951,-0.00011061,0.,0.0004115
 6,0.00007687,0.00000002,0.00003546,0.00006786,-0.00000006,-0.00015275,
 0.00002151,0.00000002,0.00009658,0.00021952,-0.00000001,-0.00019818,-0
 .00010258,0.,-0.00023641,0.00138477,0.,0.00074492,0.00006925,0.0000000
 2,0.00190115,-0.00187827,-0.00000005,-0.00040966,-0.00043001,-0.000000
 06,-0.00031365,-0.00018310,0.00000006,-0.00001008,-0.00003046,0.000000
 08,0.00143449,-0.00058888,0.00000006,0.00012856,-0.00010013,-0.0000000
 5,-0.00031383,0.00531008,-0.00000009,-0.00014905,-0.00015819,-0.000000
 03,-0.00003106,0.00019907,0.00000002,-0.00011999,0.00011437,0.00000001
 ,-0.00003047,-0.00002813,-0.00000004,0.00018126,-0.00005487,0.,0.00022
 893,-0.00030619,0.00000001,-0.00010989,0.00046984,-0.00000006,-0.00008
 625,0.00027548,0.00000007,-0.00563359,-0.00600569,0.00000010,-0.004129
 42,0.01343279,0.,0.08733252,-0.28087933,0.00000121,-0.00442019,-0.0609
 0052,0.00000051,0.03216558,-0.00401726,-0.00000009,-0.00237125,-0.0082
 4032,0.00000006,-0.09135955,0.45148825,0.00000010,0.00000005,-0.000036
 38,0.00000006,-0.00000004,-0.00015163,0.,0.00000002,-0.00000365,0.0000
 0002,0.00000002,0.00000191,0.00000011,-0.00000007,-0.00001513,0.000000
 01,0.00000002,-0.00000164,-0.00000007,-0.00000006,-0.00000535,-0.00000
 004,-0.00000001,0.00000994,-0.00000004,0.00000004,-0.00000256,-0.00000
 004,0.,0.00011038,0.,-0.00000003,0.00001810,0.00000002,-0.00000005,-0.
 00066110,-0.00000005,0.00000005,0.00003678,-0.00000004,0.00000002,0.00
 000709,0.00000005,0.00000001,0.00001896,-0.00000006,0.00000003,0.00082
 181,0.00000004,0.00000006,0.00000501,-0.00000007,-0.00000003,-0.000166
 26,0.,-0.00000005,0.00000994,0.00000005,0.,-0.00000256,-0.00000002,-0.
 00000008,-0.00000535,-0.00000006,0.,-0.00000166,-0.00000001,-0.0000000
 2,0.00000191,-0.00000011,0.00000003,-0.00001510,0.00000007,-0.00000003
 ,0.00003677,0.00000005,0.00000002,0.00000709,0.00000011,0.00000006,0.0
 0489667,0.,0.00000003,0.00422606,-0.00000028,0.00000129,-0.06171730,-0
 .00000004,0.00000048,0.02285726,-0.00000003,-0.00000024,-0.00435627,0.
 00000010,0.,-0.00094890,-0.00000054,-0.00000221,0.08934059,0.00527333,
 0.00304662,-0.00000002,-0.00192335,-0.00254752,0.00000001,0.00078050,0
 .00043573,-0.00000001,0.00002229,0.00002864,-0.00000001,-0.00067497,0.
 00028082,0.00000002,0.00049350,-0.00031182,-0.00000002,0.00006608,0.00
 006799,0.00000002,-0.00059774,-0.00119027,0.,0.00000536,-0.00005138,0.
 ,0.00006123,-0.00015843,0.,-0.00144960,0.00004928,0.00000003,-0.007621
 40,0.00695401,0.00000002,0.00058401,0.00044786,-0.00000003,0.00171754,
 0.00086768,-0.00000002,-0.00047751,0.00020461,0.,-0.00162056,-0.019662
 09,0.00000006,-0.00001364,-0.00001005,-0.00000002,-0.00199693,-0.00527
 857,0.,0.00044459,0.00112270,0.,0.00003501,0.00003009,0.,-0.00000944,-
 0.00009025,0.,0.00056731,-0.00014393,0.,-0.00000195,-0.00003831,0.,-0.
 00053549,0.00029735,0.,0.00000786,-0.00064494,-0.00000002,0.00033737,-
 0.00166124,0.,-0.05416175,0.04152421,0.,0.00062170,-0.00838707,0.00000
 001,-0.03002453,-0.08251773,0.00000077,-0.34223652,-0.04622397,0.00000
 129,-0.00247098,-0.00435443,0.00000002,0.00908853,0.01628343,-0.000000
 05,-0.05930422,0.03070890,-0.00000013,0.64985329,-0.00122394,-0.000828
 90,0.00000004,0.00036359,0.00076609,0.00000002,-0.00019681,-0.00019974
 ,-0.00000001,-0.00001808,-0.00001000,0.,0.00018042,-0.00005170,0.00000
 003,-0.00020561,0.00018577,-0.00000005,-0.00002705,-0.00002800,0.00000
 003,0.00025104,0.00038717,0.,0.00000526,0.00001712,-0.00000002,-0.0000
 3552,0.00009950,-0.00000001,0.00046930,0.00004393,0.00000003,0.0026970
 3,-0.00067328,-0.00000004,-0.00016306,-0.00015727,-0.00000006,-0.00050
 647,-0.00032774,-0.00000002,0.00020457,-0.00013547,0.00000002,0.004774
 01,0.00381571,-0.00000002,-0.00001011,-0.00003048,-0.00000003,0.002238
 49,0.00160650,-0.00000008,-0.00031890,-0.00065415,-0.00000003,-0.00002
 659,-0.00001246,0.,0.00000482,0.00004757,0.00000002,-0.00025030,0.0001
 1216,-0.00000002,0.00000851,0.00001430,0.,0.00039770,-0.00019127,0.000
 00002,-0.00003410,0.00041876,-0.00000004,-0.00029036,0.00105297,0.,0.0
 4041027,-0.00216263,-0.00000020,0.00033653,0.00299341,-0.00000002,-0.0
 3650068,0.03101961,0.00000009,-0.05120531,-0.11560535,0.00000042,0.000
 61215,-0.00787525,0.00000008,-0.00269517,-0.00997991,0.00000010,0.0307
 0547,-0.00792422,-0.00000016,-0.10934043,0.46693751,-0.00000012,-0.000
 00006,-0.00064912,-0.00000009,0.00000010,0.00034744,0.,0.,0.00000657,0
 .,-0.00000006,0.00000738,-0.00000017,0.00000010,-0.00003399,-0.0000000
 3,-0.00000007,-0.00001163,0.00000011,0.00000012,-0.00002436,0.00000007
 ,0.,-0.00004773,0.00000004,-0.00000007,0.00000591,0.00000007,-0.000000
 03,0.00011867,0.,-0.00000002,-0.00005137,-0.00000005,0.00000009,-0.000
 82813,0.00000008,-0.00000007,0.00000705,0.00000005,0.00000001,0.000145
 50,-0.00000008,0.00000003,0.00011389,0.00000005,0.,0.00176344,-0.00000
 008,-0.00000010,0.00001896,0.00000008,0.00000005,0.00082195,-0.0000000
 2,0.00000007,-0.00004774,-0.00000008,0.,0.00000595,0.00000006,0.000000
 11,-0.00002439,0.00000010,0.00000001,-0.00001160,0.,0.00000005,0.00000
 739,0.00000020,-0.00000007,-0.00003400,-0.00000011,0.00000006,0.000007
 06,-0.00000003,-0.00000004,0.00014568,-0.00000008,-0.00000019,-0.00570
 707,0.00000005,-0.00000007,-0.00072900,0.00000042,0.00000005,0.0253391
 8,0.00000129,0.00000044,-0.05839887,-0.00000002,0.00000025,0.00386841,
 -0.00000008,-0.00000002,0.00361847,-0.00000009,-0.00000007,-0.01591981
 ,-0.00000064,-0.00000260,0.07772341,0.00060207,0.00179009,0.,0.0000400
 1,-0.00035394,-0.00000002,0.00065323,0.00064839,0.,-0.00009290,0.00009
 573,0.,-0.00032300,-0.00010426,0.00000002,-0.00026719,-0.00024259,-0.0
 0000003,0.00035931,0.00019112,0.00000002,0.00012648,0.00000993,-0.0000
 0002,0.00015913,0.00005160,0.,0.00028530,-0.00103961,0.,-0.00078277,-0
 .00002999,0.00000002,-0.00059001,0.00036557,-0.00000002,0.00038014,0.0
 0028258,-0.00000004,-0.00000206,-0.00000863,0.00000005,0.00002229,-0.0
 0001810,0.00000005,0.00003223,-0.00014677,0.00000005,-0.00033992,0.000
 15952,-0.00000004,0.00039866,-0.00245882,-0.00000004,0.00038065,0.0006
 1402,-0.00000002,0.00007701,-0.00098148,0.,0.00055222,-0.00004827,0.00
 000001,0.00004091,-0.00013126,-0.00000002,-0.00074175,0.00034739,0.,-0
 .00074105,0.00155969,0.,0.00009392,-0.00235491,-0.00000004,0.00014822,
 -0.00079988,0.00000006,0.00139665,-0.00030396,-0.00000002,0.00024952,-
 0.00325345,0.00000002,0.00455098,-0.01673636,0.00000013,0.00197191,0.0
 0727647,-0.00000008,-0.00389584,0.00263404,0.,-0.00047405,0.00278802,0
 .00000001,-0.06693564,0.04303359,-0.00000027,-0.00379282,-0.00548650,0
 .00000012,0.76714859,-0.00010274,-0.00104922,0.00000002,-0.00001925,-0
 .00004689,-0.00000004,-0.00040701,-0.00025454,0.00000001,0.00009575,0.
 00000021,0.,0.00021630,-0.00011794,0.00000001,0.00002466,-0.00001206,-
 0.00000004,-0.00016695,0.00008155,0.00000002,-0.00020689,0.00015194,-0
 .00000003,-0.00000994,-0.00007905,0.00000001,0.00001234,0.00066093,0.,
 0.00018536,0.00011583,0.00000002,0.00001033,-0.00013727,-0.00000003,-0
 .00013680,-0.00009176,-0.00000007,0.00004787,0.00002479,0.00000011,0.0
 0002866,-0.00000997,0.00000011,-0.00002509,0.00012848,0.00000011,0.000
 22779,-0.00011062,-0.00000007,-0.00018229,0.00153310,-0.00000007,-0.00
 045223,-0.00031857,-0.00000003,0.00007443,0.00032164,0.,-0.00041364,-0
 .00007579,0.00000001,-0.00001943,0.00025108,-0.00000004,0.00027920,-0.
 00021735,0.00000002,0.00044307,-0.00052753,0.00000002,-0.00002580,0.00
 077335,-0.00000007,-0.00016758,0.00043205,0.00000010,0.00010045,-0.000
 12180,-0.00000005,-0.00072985,0.00190337,0.,-0.00852587,0.01183543,0.0
 0000004,-0.00496503,-0.00395537,0.,0.00230637,0.00023566,0.,-0.0001198
 4,-0.00197901,0.00000002,0.02332555,0.00653996,-0.00000018,-0.00051644
 ,-0.00652678,0.00000019,0.07464191,0.66640770,-0.00000002,0.,-0.000028
 60,0.,0.00000002,0.00001613,0.,0.00000001,0.00000498,0.,0.,0.00000044,
 -0.00000003,0.00000002,-0.00000163,0.,-0.00000001,-0.00000713,0.,0.,0.
 00000016,0.00000001,0.,0.00000567,0.,-0.00000001,0.00000093,0.,0.,0.00
 000105,0.,0.,-0.00001233,0.,0.,0.00009104,0.00000001,0.,-0.00000256,0.
 ,0.00000001,0.00000592,0.,0.00000001,0.00000738,0.,0.,0.00011890,-0.00
 000001,0.,0.00000191,0.00000001,0.,0.00011033,0.,0.,0.00000838,0.,0.,0
 .00000499,0.00000002,0.,-0.00000143,0.00000001,0.,-0.00000498,0.,0.000
 00001,-0.00000144,0.,0.,-0.00000884,0.,0.,-0.00000364,0.,0.,0.00000669
 ,0.,0.,-0.00215890,0.00000001,-0.00000002,-0.00028439,0.00000009,0.,0.
 01127343,0.00000004,0.00000002,0.00055166,-0.00000002,0.00000003,0.000
 86342,-0.00000002,0.00000001,0.00009662,-0.00000010,-0.00000011,-0.004
 35364,0.00000004,0.00000005,0.00386893,-0.00000013,-0.00000357,0.13082
 298,0.00050087,0.00057406,0.00000002,-0.00003581,-0.00007946,-0.000000
 03,0.00028116,0.00020469,0.,-0.00032301,0.00021635,0.00000001,-0.00023
 587,-0.00031338,0.00000003,0.00013513,-0.00067802,-0.00000005,0.000819
 40,0.00025660,0.00000002,-0.00020647,0.00003427,-0.00000002,0.00035527
 ,0.00021497,-0.00000001,0.00005994,-0.00033803,0.,-0.00026261,-0.00015
 415,0.00000001,-0.00048719,0.00022736,-0.00000002,0.00030000,0.0002013
 7,-0.00000005,0.00007035,0.00004392,0.00000005,-0.00067500,0.00018043,
 0.00000007,0.00003531,-0.00049315,0.00000004,-0.00084211,0.00041155,-0
 .00000004,0.00002789,-0.00085670,-0.00000007,0.00314746,0.00428161,0.,
 0.00009457,-0.00208389,0.00000002,0.00132706,-0.00009729,0.00000002,0.
 00093541,-0.00084950,-0.00000005,-0.00160102,0.00084008,-0.00000002,-0
 .00452503,0.00460170,-0.00000001,0.00019923,-0.00836973,-0.00000006,0.
 00148438,-0.00523610,0.00000006,-0.00094495,0.00074891,-0.00000002,0.0
 0033882,-0.00219600,0.,0.00360228,-0.00611556,0.00000006,0.00375267,0.
 00193505,-0.00000004,-0.00267279,0.00094915,0.00000002,0.00041763,0.00
 128857,0.00000003,-0.00915448,0.00346407,-0.00000008,-0.00881285,0.001
 29940,0.00000003,-0.03902776,-0.02631895,0.00000011,0.67887305,0.00023
 071,0.00113776,-0.00000002,-0.00007322,0.00002360,0.00000004,0.0005699
 9,0.00019521,-0.00000001,-0.00010428,-0.00011797,-0.00000001,-0.000313
 38,0.00047473,-0.00000002,-0.00003288,0.00045091,0.00000005,-0.0000573
 9,-0.00031992,-0.00000002,0.00052439,-0.00038000,0.00000003,-0.0001433
 2,0.00008558,0.,-0.00012263,-0.00072698,0.,-0.00014332,-0.00015372,-0.
 00000001,-0.00021778,0.00078510,0.00000003,0.00009072,0.00006404,0.000
 00006,-0.00005130,-0.00003171,-0.00000009,0.00028086,-0.00005167,-0.00
 000010,-0.00007343,-0.00144088,-0.00000007,-0.00009155,0.00007687,0.00
 000006,0.00011777,-0.00164614,0.00000008,-0.00109858,-0.00109950,0.000
 00002,-0.00019040,-0.00054215,-0.00000002,0.00024640,0.00031144,-0.000
 00001,-0.00040301,-0.00025777,0.00000005,-0.00027626,0.00033255,0.,0.0
 0060349,-0.00017051,-0.00000001,0.00002009,0.00053483,0.00000007,-0.00
 096092,0.00296190,-0.00000010,-0.00175791,0.00239839,0.00000002,0.0003
 6669,-0.00225208,0.,0.00192366,-0.01100074,0.00000005,0.01087342,0.004
 51200,0.,-0.00196013,0.00021972,0.,0.00099021,0.00232468,-0.00000004,-
 0.01184027,0.00307457,0.00000007,-0.01767902,0.00792053,-0.00000012,-0
 .04304228,0.01327274,-0.00000015,0.03204166,0.65050047,-0.00000003,-0.
 00000002,0.00000826,-0.00000002,0.,0.00000168,0.,-0.00000001,-0.000001
 43,-0.00000001,0.,-0.00000164,-0.00000002,0.,0.00000421,0.,0.,-0.00002
 005,0.00000002,0.00000001,0.00001483,0.,0.00000002,0.00001445,0.000000
 02,-0.00000001,0.00000016,0.00000001,0.,-0.00001236,0.,0.,0.00000842,0
 .,0.00000001,0.00003418,0.00000001,-0.00000001,-0.00000536,0.00000002,
 -0.00000001,-0.00002438,-0.00000002,-0.00000001,-0.00003402,0.00000002
 ,0.00000001,-0.00005147,0.,-0.00000001,-0.00001512,0.00000002,0.000000
 01,0.00001814,0.00000002,0.00000004,-0.00000889,-0.00000001,0.,-0.0000
 2865,0.,0.00000002,0.00000828,0.00000003,0.,0.00015217,0.,0.,-0.000008
 84,0.00000002,0.,-0.00000899,-0.00000003,-0.00000003,-0.00003625,0.,-0
 .00000005,-0.00064834,0.,-0.00000002,-0.00045355,0.00000002,0.,0.00001
 961,0.,0.,0.00050019,-0.00000006,-0.00000001,0.00011247,0.,0.00000002,
 0.00009670,-0.00000003,0.,0.00002878,0.00000007,0.00000001,-0.00094832
 ,0.00000009,0.,0.00361919,0.00000023,-0.00000009,0.00232135,0.00000137
 ,-0.00000318,0.16406545,-0.00141650,-0.00164773,0.00000002,0.00062519,
 0.00110426,0.,-0.00021438,-0.00027092,0.,-0.00026720,0.00002465,0.,0.0
 0013512,-0.00003287,0.,-0.00023420,0.00068805,-0.00000001,-0.00011678,
 -0.00047784,0.,0.00058310,0.00046403,0.00000002,0.00009400,0.00019664,
 0.,-0.00006915,0.00017558,0.,0.00063837,-0.00018399,0.,0.00279163,-0.0
 0152169,0.,-0.00016698,-0.00016410,0.,-0.00072788,-0.00044621,-0.00000
 004,0.00049350,-0.00020560,-0.00000003,0.00161801,0.00357501,-0.000000
 05,-0.00003237,0.00003546,0.00000001,-0.00047931,0.00192412,0.,-0.0007
 2786,-0.00188501,0.,-0.00018679,0.00022292,0.,-0.00005738,0.00006699,0
 .,-0.00059992,0.00018633,0.,0.00023892,0.00003420,0.,0.00084999,-0.000
 92094,0.,-0.00007706,0.00164649,0.,-0.00085035,0.00316600,-0.00000004,
 -0.00104194,-0.01336003,0.00000008,0.00022272,0.00086543,0.,0.00620623
 ,0.01207353,-0.00000014,-0.08545485,0.04179574,-0.00000003,-0.00265173
 ,0.00340777,-0.00000001,-0.00210505,-0.00296715,0.00000003,-0.02520556
 ,-0.03826726,0.00000035,-0.16103855,0.10550607,-0.00000072,0.03203638,
 0.00852781,-0.00000007,-0.00994489,0.02871092,-0.00000018,0.68139496,0
 .00373297,0.00346444,-0.00000004,-0.00125864,-0.00108882,-0.00000002,0
 .00079541,0.00027623,0.,-0.00024265,-0.00001202,0.,-0.00067802,0.00045
 097,-0.00000001,0.00068804,0.00015120,0.00000003,0.00001184,-0.0004695
 3,-0.00000002,-0.00015733,-0.00116763,-0.00000002,-0.00002024,0.000184
 55,0.00000002,-0.00018013,-0.00065852,0.00000002,-0.00062928,-0.000340
 30,-0.00000003,-0.00464338,0.00504602,0.00000004,0.00039722,0.00027184
 ,0.00000002,0.00099416,0.00051874,0.00000005,-0.00031180,0.00018575,0.
 00000002,-0.00068299,-0.00991407,0.00000005,-0.00011084,0.00006786,0.,
 0.00054865,-0.00557601,0.00000003,0.00047784,0.00026336,0.00000002,-0.
 00011185,0.00018008,0.00000001,0.00006091,0.00004536,0.,0.00016680,-0.
 00030452,0.,0.00014628,0.00005324,0.,-0.00047438,-0.00017236,-0.000000
 01,-0.00020947,0.00006771,0.,0.00025716,-0.00030523,0.00000004,-0.0103
 2631,0.01917957,0.,0.00190452,-0.01003236,0.00000002,0.00879578,-0.059
 58489,0.00000031,0.07469221,0.01203650,-0.00000023,-0.00883651,0.00067
 096,0.00000003,0.00597083,0.01036817,-0.00000007,-0.07941203,0.0286910
 9,0.00000015,0.10052765,-0.29686979,0.00000164,0.00820781,-0.03254611,
 0.00000033,0.02332275,0.00777593,0.,-0.03865193,0.67221622,0.00000004,
 0.,-0.00000930,0.00000006,-0.00000002,0.00006024,0.,0.,0.00000840,0.00
 000002,0.00000002,-0.00000712,0.00000011,-0.00000006,-0.00002006,0.000
 00002,0.00000002,-0.00001773,-0.00000008,-0.00000007,0.00001446,-0.000
 00003,-0.00000001,0.00002666,-0.00000002,0.00000003,0.00000566,-0.0000
 0003,0.,0.00009119,0.00000002,-0.00000003,0.00003418,0.00000006,-0.000
 00008,-0.00051296,-0.00000005,0.00000004,0.00000996,-0.00000004,0.0000
 0002,-0.00004775,0.00000004,0.00000001,-0.00001159,-0.00000004,0.00000
 007,-0.00082964,0.00000004,0.00000006,-0.00000166,-0.00000005,0.000000
 02,-0.00066124,0.,-0.00000004,0.00006011,0.00000003,0.,0.00001612,-0.0
 0000002,-0.00000009,0.00000167,-0.00000005,0.,-0.00011216,0.,0.,-0.000
 00499,-0.00000010,0.00000004,0.00015220,0.00000007,-0.00000002,-0.0001
 5158,0.00000002,0.00000003,0.00034746,0.00000016,-0.00000005,0.0114469
 9,-0.00000004,0.00000009,-0.00000002,-0.00000010,0.00000037,-0.0129002
 1,-0.00000035,-0.00000011,-0.00009483,0.00000008,-0.00000007,0.0005517
 2,0.00000002,-0.00000005,0.00011218,0.00000064,-0.00000004,0.02286755,
 -0.00000074,0.00000162,-0.05838479,-0.00000007,0.00000018,0.00356346,-
 0.00000021,-0.00000002,0.00062378,0.00000021,-0.00000368,0.15978532,0.
 00056847,-0.00015129,0.00000002,0.00067964,-0.00028160,0.,-0.00021765,
 0.00004354,0.,0.00060217,-0.00010271,0.,0.00050088,0.00023061,0.000000
 03,-0.00141647,0.00373299,-0.00000002,-0.00351343,-0.00118714,0.,0.000
 58256,0.00060629,0.00000001,-0.00039521,-0.00041972,-0.00000004,0.0001
 2197,0.00027793,-0.00000003,-0.00012148,0.00060048,0.00000003,-0.00057
 824,-0.00030932,0.,-0.00029129,-0.00022629,-0.00000003,-0.00040700,-0.
 00043560,-0.00000004,0.00527332,-0.00122391,0.,-0.00000349,0.00009391,
 -0.00000004,0.00406866,-0.00225317,-0.00000001,-0.00000360,0.00008450,
 -0.00000004,-0.03411776,-0.03532895,-0.00000013,-0.00092851,0.01358661
 ,-0.00000008,-0.00916886,-0.00125367,-0.00000004,-0.00758250,0.0081756
 7,-0.00000005,0.00899268,-0.00531613,0.00000003,0.04122206,-0.00393270
 ,0.00000030,-0.17553444,-0.09530041,-0.00000054,-0.03570971,0.07905085
 ,-0.00000050,0.00007490,0.00000912,0.00000002,-0.00011892,-0.00033906,
 0.00000001,0.00062960,-0.00030461,0.00000002,0.00046262,-0.00033091,-0
 .00000002,-0.00033037,0.00034821,0.,-0.00005208,0.00002176,0.00000002,
 -0.00090680,0.00042195,-0.00000002,-0.00082595,0.00057046,-0.00000002,
 -0.00081093,0.00029790,-0.00000003,-0.00553068,0.00334823,-0.00000002,
 0.00199684,0.00005871,-0.00000002,0.63016009,-0.00015133,-0.00032951,0
 .00000001,0.00036326,-0.00009350,0.00000001,-0.00027721,-0.00022331,0.
 ,0.00179011,-0.00104921,0.,0.00057407,0.00113772,0.00000002,-0.0016477
 2,0.00346447,0.,-0.00518507,-0.00118289,-0.00000001,0.00105348,0.00009
 449,0.00000001,-0.00153627,-0.00087315,-0.00000002,-0.00008028,0.00031
 886,-0.00000001,0.00028681,0.00062060,0.00000001,0.00018076,-0.0000078
 8,-0.00000001,-0.00072955,-0.00047378,-0.00000001,-0.00033489,-0.00031
 937,-0.00000004,0.00304664,-0.00082887,-0.00000002,-0.00000162,0.00004
 158,-0.00000003,0.00613724,-0.00333071,0.,-0.00002609,0.00036743,-0.00
 000002,-0.03206437,-0.01926623,-0.00000022,0.00535833,0.01730500,0.000
 00006,-0.00929286,0.00176769,-0.00000002,-0.00550803,0.00194851,-0.000
 00005,0.01030783,-0.00756599,0.00000002,0.02949507,-0.10387608,0.00000
 023,-0.09706013,-0.26401722,-0.00000029,0.03310223,0.03690898,0.000000
 19,0.00001525,-0.00008700,0.00000002,0.00002626,0.00059516,0.,-0.00064
 901,0.00100844,0.,-0.00077598,-0.00016466,0.,0.00056359,-0.00033645,0.
 ,0.00003285,-0.00036409,0.00000002,0.00139732,-0.00071041,0.,0.0009908
 7,-0.00057905,0.,0.00286059,-0.00110175,0.,0.01139020,-0.00186596,0.00
 000007,-0.00244935,-0.00054645,-0.00000002,-0.00406229,0.69964375,-0.0
 0000001,0.,0.00000422,-0.00000002,0.,-0.00002004,0.,0.,-0.00000163,0.,
 0.,-0.00002860,-0.00000003,0.00000002,0.00000827,-0.00000001,0.0000000
 2,-0.00000929,0.00000002,0.00000002,-0.00000942,0.,0.00000002,0.000152
 28,0.00000001,-0.00000001,-0.00000885,0.00000001,0.,0.00000016,0.,0.00
 000001,0.00001483,-0.00000002,0.00000001,0.00001445,0.00000001,-0.0000
 0001,-0.00001515,0.,-0.00000002,-0.00003405,0.00000001,-0.00000002,-0.
 00064914,0.00000003,0.,-0.00002436,0.,-0.00000004,-0.00003638,0.000000
 01,0.,-0.00000538,-0.00000009,-0.00000019,-0.01290235,-0.00000009,0.00
 000005,0.01127344,-0.00000005,0.00000003,0.00050069,-0.00000003,0.0000
 0005,0.00061378,0.00000006,-0.00000002,0.00000147,0.00000030,0.0000000
 1,-0.00074468,-0.00000057,-0.00000021,-0.06159400,-0.00000049,0.000000
 50,0.02534764,-0.00000002,-0.00000002,0.00000168,0.00000002,0.,-0.0000
 0143,0.,-0.00000003,0.00000831,-0.00000001,0.,0.00003421,0.,0.00000002
 ,-0.00001235,-0.00000001,0.,0.00000842,0.,0.00000002,0.00001807,0.,0.0
 0000003,-0.00005151,0.,0.00000002,0.00001973,0.,0.,0.00050204,0.000000
 01,-0.00000001,-0.00045283,0.00000255,-0.00000087,0.16392148,0.0006796
 4,0.00036328,0.00000002,-0.00054114,-0.00051066,0.00000001,0.00001868,
 0.00007761,-0.00000001,0.00004006,-0.00001930,0.,-0.00003577,-0.000073
 31,0.00000002,0.00062520,-0.00125864,-0.00000004,0.00068754,0.00056792
 ,0.00000002,-0.00053134,-0.00020617,0.00000002,0.00002168,-0.00002071,
 -0.00000001,0.00008538,0.00002496,-0.00000001,-0.00017943,0.00002429,0
 .00000003,-0.00086234,0.00099219,-0.00000001,0.00007547,0.00004859,-0.
 00000004,0.00048723,0.00031454,-0.00000004,-0.00192337,0.00036364,-0.0
 0000001,-0.00003186,-0.00139587,-0.00000002,-0.00059160,0.00050622,-0.
 00000002,0.00006104,-0.00052886,-0.00000003,0.00387241,0.01619010,-0.0
 0000006,0.00016949,-0.00040250,0.,0.00112592,0.00044572,0.00000001,0.0
 0392443,-0.00161302,0.00000002,-0.00100935,0.00015804,0.,-0.00685037,0
 .00396564,-0.00000004,-0.00548400,-0.00653260,-0.00000007,0.02031069,0
 .00148437,0.00000012,-0.00059351,0.00196214,0.00000002,-0.00007354,-0.
 00087628,0.,0.00134144,-0.00532446,0.00000005,0.00715269,0.00212741,-0
 .00000005,-0.00050862,0.00043376,0.,0.00025647,0.00084931,0.00000002,-
 0.00537382,0.00227520,-0.00000002,-0.00828631,0.00640016,-0.00000003,-
 0.00866763,0.00322978,-0.00000003,-0.05201338,0.02497229,-0.00000030,0
 .02436369,-0.00435092,0.00000002,-0.01941504,-0.01802615,-0.00000003,0
 .70782883,-0.00028165,-0.00009355,0.,-0.00051069,0.00045806,0.,-0.0001
 8990,-0.00029772,0.,-0.00035396,-0.00004687,0.,-0.00007950,0.00002366,
 0.,0.00110425,-0.00108877,0.00000001,0.00101431,-0.00001025,0.,-0.0002
 2564,-0.00037307,0.,0.00009116,0.00027035,0.,-0.00019166,0.00019311,0.
 ,0.00051434,-0.00040674,-0.00000001,0.00037074,0.00027770,0.00000002,-
 0.00009799,-0.00004010,0.00000001,0.00020916,0.00019304,-0.00000002,-0
 .00254751,0.00076604,-0.00000003,0.00004425,-0.00017913,-0.00000003,-0
 .00134993,0.00058137,0.,0.00003248,0.00004371,0.,0.01316575,0.01426117
 ,0.00000015,-0.00080857,0.00110644,-0.00000001,0.00295301,0.00032703,0
 .00000002,0.00299318,-0.00396370,0.,-0.00069502,0.00041228,-0.00000001
 ,-0.00971557,0.00120251,-0.00000007,0.00482105,-0.00458499,0.00000007,
 0.00256621,-0.07661823,0.00000016,-0.00040050,0.00012985,0.,0.00018990
 ,0.00013541,-0.00000001,0.00005498,0.00070662,0.,-0.00099533,0.0006843
 6,0.00000002,0.00007787,-0.00021880,0.,0.00040450,0.00004157,0.,0.0009
 0123,-0.00068281,0.,0.00214112,-0.00001184,-0.00000004,0.00426570,-0.0
 0114307,0.,0.02170446,-0.00146430,0.,-0.00132570,-0.00624010,0.0000001
 2,-0.02343130,0.01700207,-0.00000013,0.02314120,0.64560591,0.00000009,
 0.00000004,-0.00002004,0.00000004,-0.00000003,-0.00001764,0.,0.,-0.000
 00712,0.00000002,0.00000002,0.00001613,0.00000010,-0.00000006,0.000001
 67,0.00000002,0.00000001,0.00006027,-0.00000007,-0.00000005,0.00015221
 ,-0.00000004,0.,-0.00011226,-0.00000002,0.00000002,-0.00000499,-0.0000
 0003,0.,0.00000565,0.,-0.00000004,0.00001444,0.00000002,-0.00000004,0.
 00002665,-0.00000005,0.00000004,-0.00000165,-0.00000003,0.,-0.00001158
 ,0.00000002,0.,0.00034739,-0.00000004,0.,-0.00004773,0.00000004,0.0000
 0006,-0.00015162,-0.00000005,-0.00000002,0.00000997,-0.00000009,0.,0.0
 1145387,0.00000006,0.,-0.00215906,-0.00000002,-0.00000006,-0.00045291,
 -0.00000003,0.,0.00047865,0.,0.,0.00001935,-0.00000011,0.00000005,0.00
 061586,-0.00000003,-0.00000006,0.00489304,0.00000018,0.00000025,-0.005
 72411,0.00000002,0.00000003,0.00006008,-0.00000002,0.00000003,0.000008
 39,0.,0.00000002,-0.00000924,0.00000005,0.00000002,-0.00051410,0.00000
 001,-0.00000005,0.00009118,0.00000006,0.,0.00003420,-0.00000005,-0.000
 00004,-0.00066079,-0.00000007,0.,-0.00082767,-0.00000009,-0.00000001,0
 .00000247,-0.00000037,0.00000010,-0.01284026,0.00000012,0.00000011,0.0
 1145303,-0.00000002,-0.00000017,0.00068456,0.00000276,-0.00000213,0.15
 969379,-0.00021764,-0.00027720,0.,0.00001866,-0.00018988,0.,-0.0001061
 4,-0.00008814,0.,0.00065323,-0.00040700,0.,0.00028116,0.00056998,0.,-0
 .00021436,0.00079542,0.,-0.00144792,-0.00003474,0.,0.00026381,-0.00010
 916,0.,-0.00061975,-0.00034970,0.,-0.00003742,0.00012361,0.,0.00014042
 ,0.00029357,0.,0.00023058,0.00014659,0.,-0.00033566,-0.00023030,0.,-0.
 00000630,-0.00001222,0.,0.00078048,-0.00019682,0.,0.00000096,-0.000049
 76,0.,0.00163483,-0.00086342,-0.00000001,-0.00003683,0.00037776,-0.000
 00001,-0.00627450,-0.00461391,-0.00000004,-0.00023464,0.00297477,0.,-0
 .00239774,0.00061666,0.,-0.00105879,0.00044025,0.,0.00212228,-0.001223
 97,0.,0.00934885,-0.00735281,0.00000007,-0.00179960,0.02227948,-0.0000
 0007,-0.00108328,0.00740521,-0.00000001,0.00013670,-0.00003650,0.,-0.0
 0013241,0.00086074,0.,-0.00136751,0.00124019,0.,-0.00041362,-0.0001126
 3,0.,0.00101227,-0.00043192,0.,-0.00017638,-0.00053579,0.,0.00239392,-
 0.00096919,0.,0.00017906,-0.00005931,0.,0.00321432,-0.00098309,0.,0.02
 094538,-0.00095165,0.00000004,0.00034670,0.00050485,0.,0.03018983,-0.0
 1352519,0.00000014,-0.02354029,0.02362559,-0.00000018,0.62649831,0.000
 04349,-0.00022332,0.00000002,0.00007755,-0.00029770,-0.00000001,-0.000
 08813,0.00001319,0.,0.00064839,-0.00025456,0.,0.00020471,0.00019519,0.
 00000001,-0.00027093,0.00027629,-0.00000003,-0.00115118,0.00017926,0.,
 0.00000259,0.00002818,0.,-0.00041758,-0.00033913,0.,0.00006187,0.00011
 762,0.,-0.00006474,0.00030023,0.00000002,-0.00007006,0.00004774,-0.000
 00002,-0.00016190,-0.00011483,-0.00000004,0.00003463,0.00001890,0.0000
 0003,0.00043570,-0.00019977,0.00000005,0.00000685,0.00002169,0.0000000
 3,0.00146543,-0.00076675,-0.00000003,-0.00004185,0.00032532,-0.0000000
 4,-0.00565174,-0.00353870,-0.00000006,0.00044971,0.00238745,0.00000001
 ,-0.00194548,0.00048323,0.,-0.00041609,0.00046322,-0.00000002,0.001801
 66,-0.00118753,0.00000001,0.00827129,-0.00792427,0.00000006,0.00398835
 ,0.01366048,-0.00000001,-0.00131975,0.00470184,0.00000002,0.00029830,-
 0.00014343,0.,-0.00019521,0.00053088,0.,-0.00065401,0.00092045,0.,-0.0
 0046823,-0.00031437,-0.00000002,0.00062057,-0.00006567,0.,-0.00032016,
 -0.00049090,0.00000002,0.00130845,-0.00046153,-0.00000003,0.00006283,-
 0.00001832,0.00000005,0.00154205,-0.00106179,0.00000001,0.00726671,-0.
 00457274,0.00000012,0.00090832,0.00092823,-0.00000004,0.00322209,-0.05
 594965,0.00000018,0.02389695,0.02314930,0.,0.00626464,0.80677010,-0.00
 000003,-0.00000001,-0.00000163,-0.00000002,0.00000002,-0.00000712,0.,0
 .,0.00000045,0.,0.,0.00000498,-0.00000002,0.00000002,-0.00000143,0.,0.
 ,0.00000838,0.,0.00000001,-0.00000888,0.00000002,0.,-0.00000500,0.,-0.
 00000002,-0.00000144,0.00000001,0.,0.00000093,0.,0.,0.00000017,0.,0.00
 000002,0.00000564,0.00000001,0.,0.00000190,0.00000001,0.,0.00000738,0.
 ,0.,0.00000661,0.,0.,0.00000595,0.,-0.00000001,-0.00000366,0.00000002,
 0.,-0.00000257,0.,0.,0.00000110,-0.00000001,0.,-0.00028385,0.,0.,0.000
 01972,0.00000001,0.,0.00001888,0.,0.,-0.00009041,0.00000004,-0.0000000
 1,0.00000072,-0.00000006,0.00000006,0.00422728,0.,0.,-0.00072884,0.,0.
 ,0.00001615,0.00000001,-0.00000001,0.00000499,0.,-0.00000002,-0.000028
 58,0.,0.,0.00009135,0.,0.00000002,0.00000106,-0.00000002,0.,-0.0000123
 6,0.00000001,0.00000002,0.00011018,0.,0.,0.00011855,0.00000001,0.,-0.0
 0028364,0.00000002,0.00000007,0.01127588,0.,-0.00000001,-0.00216089,0.
 00000011,0.00000010,0.00230838,-0.00000027,0.00000006,0.00352342,0.000
 00184,-0.00000232,0.13095462,0.00012195,-0.00008031,-0.00000001,0.0000
 8539,-0.00019168,0.,-0.00003742,0.00006185,0.,0.00028528,0.00001236,0.
 ,0.00005985,-0.00012257,-0.00000001,-0.00006916,-0.00018014,0.00000001
 ,-0.00030988,0.00023079,-0.00000001,-0.00015710,0.00005266,0.,-0.00006
 965,-0.00014271,0.,0.00005089,0.00004313,0.,-0.00010604,0.00013702,-0.
 00000001,-0.00011232,-0.00003189,0.,0.00001094,-0.00000187,0.00000002,
 0.00003426,0.00003465,0.,0.00006124,-0.00003555,0.,-0.00000264,0.00003
 778,0.,0.00054715,-0.00023646,0.00000002,-0.00001276,0.00010823,0.0000
 0003,-0.00250964,-0.00332436,0.,0.00134190,0.00038965,0.,-0.00094059,0
 .00005105,-0.00000001,-0.00000688,0.00061276,0.00000001,0.00042280,-0.
 00079253,0.,0.00282751,-0.00789060,-0.00000005,0.01927567,-0.00821960,
 0.00000016,-0.00813584,0.00105578,-0.00000009,0.00017764,-0.00006945,0
 .,-0.00007708,0.00003631,0.,0.00009314,0.00013785,-0.00000001,-0.00018
 384,-0.00024562,0.,0.00000041,0.00010237,0.,-0.00015070,-0.00015658,-0
 .00000001,-0.00007458,0.00003576,0.00000002,0.00008644,-0.00014498,0.,
 -0.00010997,-0.00006468,0.,-0.00126809,-0.00060594,0.,-0.00017519,0.00
 032304,0.,-0.18052934,0.08928497,-0.00000074,0.00044075,0.00079985,0.,
 -0.18734284,-0.14061709,-0.00000005,0.72628902,0.00027796,0.00031887,0
 .,0.00002501,0.00019308,0.,0.00012360,0.00011763,0.,-0.00103959,0.0006
 6094,0.,-0.00033804,-0.00072696,0.,0.00017559,-0.00065855,0.00000001,0
 .00212420,-0.00013681,0.,-0.00028221,0.00015019,0.,0.00091283,0.000468
 28,0.,0.00004312,-0.00014383,0.,-0.00018371,-0.00033507,0.,-0.00029922
 ,-0.00016680,0.00000001,0.00041763,0.00027756,0.,-0.00002191,-0.000011
 55,0.00000001,-0.00015841,0.00009951,0.,-0.00000903,0.00001514,0.,-0.0
 0251393,0.00138477,0.,0.00003978,-0.00043783,0.00000001,0.00892065,0.0
 0052881,0.00000007,0.00071919,-0.00500310,0.,0.00295930,-0.00151148,0.
 ,0.00020988,0.00128058,0.,-0.00331781,0.00172909,0.,-0.01610705,0.0135
 4275,-0.00000008,0.01151125,-0.07964967,0.00000017,-0.00390219,-0.0021
 7736,-0.00000002,-0.00018128,0.00011438,0.,0.00010444,-0.00088197,0.,0
 .00125470,-0.00136200,0.,0.00082101,0.00024598,0.,-0.00095344,0.000398
 36,0.,0.00020879,0.00062712,-0.00000001,-0.00229370,0.00094214,0.,-0.0
 0077769,0.00049417,-0.00000001,-0.00309115,0.00104426,0.,-0.01623320,0
 .00268984,-0.00000008,0.00117855,-0.00042035,0.00000001,0.06718934,-0.
 17513047,0.00000058,-0.00526670,-0.02024564,0.00000005,-0.09820038,-0.
 38711445,0.00000079,0.08996772,0.70676131,0.,0.,0.00000016,0.,0.000000
 02,0.00000566,0.,0.00000001,0.00000092,0.,0.,0.00000105,-0.00000002,0.
 ,-0.00001236,0.,-0.00000001,0.00009117,0.,0.00000001,-0.00002858,0.000
 00001,0.,0.00001613,0.,-0.00000001,0.00000497,0.,0.,0.00000044,0.,-0.0
 0000001,-0.00000163,0.,0.,-0.00000711,0.,0.,-0.00000255,0.,0.00000001,
 0.00000589,0.,0.00000001,0.00011868,-0.00000001,-0.00000001,0.00000734
 ,0.,-0.00000002,0.00011039,0.,0.,0.00000191,-0.00000003,0.,0.00054930,
 -0.00000001,0.00000002,0.00086175,0.,0.00000002,0.00009663,0.00000002,
 0.,-0.00216072,0.00000001,0.,-0.00028377,0.,-0.00000007,0.01127395,0.0
 0000009,0.00000009,-0.00435194,-0.00000003,-0.00000002,0.00386636,0.,0
 .,-0.00000498,0.00000001,0.,-0.00000144,0.,0.00000002,-0.00000890,0.00
 000001,0.,0.00000840,0.,0.00000002,0.00000498,0.,-0.00000001,-0.000001
 42,0.,0.,-0.00000362,0.,-0.00000002,0.00000656,0.00000001,0.,-0.000090
 39,0.00000004,-0.00000002,0.00000041,-0.00000001,0.00000001,0.00001889
 ,-0.00000064,0.00000068,-0.06346408,0.,0.00000007,0.00132974,-0.000000
 22,0.00000056,-0.05457003,0.00000202,-0.00000138,0.13094859,-0.0001214
 7,0.00028681,0.,-0.00017945,0.00051435,-0.00000001,0.00014043,-0.00006
 475,0.,-0.00078278,0.00018535,0.,-0.00026260,-0.00014331,0.00000001,0.
 00063836,-0.00062929,-0.00000002,0.00132205,-0.00006980,0.00000001,-0.
 00003228,-0.00007446,-0.00000002,0.00045517,0.00050647,0.,-0.00010601,
 -0.00018371,0.,0.00018903,-0.00046871,0.,0.00018453,-0.00005071,-0.000
 00002,0.00018602,0.00013236,-0.00000003,-0.00002218,-0.00001754,0.0000
 0004,-0.00144961,0.00046931,0.00000004,0.00002367,0.00002524,0.0000000
 4,-0.00168703,0.00074489,-0.00000003,0.00007187,-0.00042597,-0.0000000
 3,0.00855472,0.00911628,0.00000002,-0.00044730,-0.00277295,0.,0.002835
 36,0.00010665,0.00000002,0.00167845,-0.00271725,-0.00000001,-0.0025362
 4,0.00141711,-0.00000001,-0.01062906,0.00712417,-0.00000007,-0.0010742
 0,-0.01479480,-0.00000001,0.00066310,-0.02113666,0.00000009,-0.0005212
 0,0.00012995,-0.00000002,0.00028655,-0.00096656,0.,0.00099465,-0.00141
 540,0.00000002,0.00042890,-0.00010327,-0.00000002,-0.00120075,0.000283
 05,0.00000001,0.00047944,0.00055650,0.,-0.00219719,0.00089708,-0.00000
 003,0.00078844,-0.00070668,0.00000006,-0.00320775,0.00010313,0.,-0.056
 66912,-0.05249436,0.00000014,-0.00329450,-0.00191791,0.,-0.00954864,0.
 01982352,-0.00000006,-0.16725484,0.06501801,-0.00000082,-0.25450535,0.
 02750853,-0.00000082,-0.01544865,-0.05168812,0.00000012,0.67473956,0.0
 0060055,0.00062065,-0.00000003,0.00002439,-0.00040681,0.00000003,0.000
 29356,0.00030028,0.,-0.00002997,0.00011580,-0.00000002,-0.00015406,-0.
 00015376,-0.00000004,-0.00018396,-0.00034035,0.00000007,0.00027417,0.0
 0031622,-0.00000002,-0.00008082,0.00002041,0.00000003,0.00014109,0.000
 02107,0.00000001,0.00013691,-0.00033510,0.,-0.00046867,0.00004994,-0.0
 0000001,-0.00069582,0.00040145,0.00000005,0.00024305,0.00017801,0.0000
 0006,0.00007793,0.00006062,-0.00000007,0.00004934,0.00004399,-0.000000
 10,-0.00007532,-0.00074993,-0.00000007,-0.00023025,0.00006936,0.000000
 05,0.00007725,-0.00083676,0.00000009,0.00018212,-0.00028755,0.00000003
 ,0.00013531,-0.00200689,-0.00000003,0.00040559,-0.00009250,-0.00000002
 ,-0.00020949,-0.00022605,0.00000007,-0.00114550,0.00062369,0.,-0.00091
 474,0.00323141,-0.00000001,0.00050489,-0.00501953,0.00000009,-0.002160
 13,-0.00157214,-0.00000005,-0.00031688,0.00119859,0.00000002,0.0001503
 2,-0.00155458,0.,0.00258394,-0.00569043,0.,0.00527668,0.00161989,0.000
 00002,-0.00161042,0.00075290,-0.00000002,0.00021258,0.00115894,-0.0000
 0004,-0.00749484,0.00293280,0.00000007,-0.00497943,0.00365687,-0.00000
 011,-0.01552093,0.00463176,-0.00000005,-0.08586017,-0.00594308,-0.0000
 0035,0.01176576,-0.00234466,0.00000011,-0.00094004,0.00608208,-0.00000
 005,0.02547156,-0.20726613,0.00000087,0.00547342,-0.10137521,0.0000001
 0,-0.03495799,-0.01034718,-0.00000009,0.03347602,0.65478738,-0.0000000
 4,-0.00000002,0.00001482,-0.00000001,0.,0.00001445,0.,-0.00000001,0.00
 000016,-0.00000001,0.,-0.00001235,-0.00000004,0.00000002,0.00000842,0.
 ,0.,0.00003419,0.00000003,0.00000001,0.00000829,0.00000001,0.,0.000001
 68,0.00000001,0.,-0.00000143,0.,0.,-0.00000164,0.,0.00000002,0.0000042
 1,0.,0.00000001,-0.00002000,0.00000002,-0.00000002,-0.00000536,0.00000
 001,-0.00000002,-0.00002438,-0.00000002,-0.00000001,-0.00005142,0.0000
 0003,0.,-0.00003405,-0.00000001,-0.00000002,0.00001812,0.00000002,0.,-
 0.00001513,0.00000002,0.00000004,0.00011356,-0.00000001,0.,0.00009707,
 0.,0.00000003,0.00002873,0.00000002,0.,-0.00045304,0.,0.,0.00001975,0.
 ,0.,0.00050252,-0.00000002,-0.00000002,-0.00094670,-0.00000003,-0.0000
 0007,0.00361860,0.,-0.00000002,0.00015215,0.00000002,0.,-0.00000887,-0
 .00000001,0.,-0.00000925,-0.00000005,-0.00000001,-0.00000899,0.,0.,-0.
 00002860,-0.00000003,0.,0.00000827,0.00000005,0.,-0.00003633,0.0000000
 5,-0.00000002,-0.00064886,0.00000009,-0.00000001,0.00000109,0.00000035
 ,-0.00000019,-0.00074245,-0.00000010,0.,0.00061555,-0.00000001,0.00000
 003,-0.00324824,-0.00000040,0.00000098,-0.07768095,-0.00000078,0.00000
 025,-0.06346056,0.00000006,-0.00000014,0.00232187,0.00000193,-0.000002
 44,0.16389816,-0.00057828,0.00018072,0.00000002,-0.00086238,0.00037072
 ,-0.00000005,0.00023059,-0.00007008,0.,-0.00059006,0.00001030,0.000000
 01,-0.00048724,-0.00021774,0.00000002,0.00279162,-0.00464340,-0.000000
 07,0.00356089,0.00191188,0.00000003,-0.00093611,-0.00068728,-0.0000000
 3,0.00038739,0.00057529,0.00000002,-0.00011229,-0.00029923,0.00000002,
 0.00018453,-0.00069580,0.00000001,0.00054938,0.00040160,-0.00000004,0.
 00029528,0.00022817,-0.00000005,0.00054719,0.00052775,0.00000011,-0.00
 762145,0.00269702,0.00000012,0.00005599,-0.00015128,0.00000010,-0.0041
 7740,0.00190112,-0.00000006,0.00003193,-0.00013444,-0.00000007,0.03806
 431,0.02961655,0.00000015,-0.00147134,-0.00926658,0.00000001,0.0098689
 5,0.00159405,0.00000005,0.00915592,-0.01404957,-0.00000008,-0.00792783
 ,0.00488248,-0.00000002,-0.04516808,0.02733816,-0.00000020,-0.01565562
 ,-0.08279029,-0.00000024,-0.21449568,0.12014827,-0.00000114,-0.0002254
 5,0.00002990,-0.00000004,0.00013338,0.00018452,0.,-0.00050167,0.000019
 63,0.00000001,-0.00030747,0.00032431,-0.00000004,0.00017228,-0.0002430
 5,0.00000002,0.00007433,0.00001275,0.00000003,0.00051398,-0.00042521,-
 0.00000006,0.00073450,-0.00032451,0.00000011,0.00009190,0.00022509,0.0
 0000002,0.00071836,-0.00338575,0.00000004,-0.00139552,-0.00145705,-0.0
 0000003,-0.23553597,0.00832927,-0.00000080,-0.12586559,-0.05354583,-0.
 00000025,-0.00954636,-0.00753654,0.,-0.01944319,0.02704328,-0.00000023
 ,0.02242106,0.01151782,0.00000005,0.64865888,-0.00030933,-0.00000788,0
 .,0.00099215,0.00027772,-0.00000003,0.00014660,0.00004770,0.00000002,0
 .00036555,-0.00013728,0.00000001,0.00022735,0.00078510,0.,-0.00152170,
 0.00504604,0.00000001,-0.00346687,-0.00151287,-0.00000003,0.00167554,0
 .00047249,-0.00000003,-0.00049084,-0.00032537,0.00000002,-0.00003188,-
 0.00016678,0.00000001,-0.00005073,0.00040149,-0.00000002,0.00040154,-0
 .00063242,-0.00000002,-0.00033306,-0.00019038,0.,-0.00091232,-0.000757
 45,0.00000008,0.00695398,-0.00067333,0.00000008,-0.00004565,0.00062370
 ,0.00000007,0.00327568,-0.00187831,0.,0.00001212,0.00000360,0.,-0.0032
 0985,-0.11181056,0.00000006,0.00297081,-0.00052450,0.00000002,-0.00734
 460,-0.00160285,-0.00000004,-0.01707688,0.00895978,-0.00000007,0.00384
 517,-0.00188143,0.00000003,0.03065621,-0.00828411,0.00000019,-0.041767
 80,0.01930071,-0.00000021,0.12505901,-0.24292678,0.00000128,0.00004948
 ,-0.00067890,-0.00000002,0.00007278,0.00015865,0.00000001,-0.00042683,
 0.00117931,-0.00000001,-0.00203908,-0.00015677,0.,0.00009140,-0.000179
 37,0.00000001,0.00001886,-0.00008638,-0.00000002,0.00143095,-0.0005235
 2,0.,0.00258775,-0.00189030,0.00000007,0.00107962,-0.00068884,0.000000
 02,0.01029610,-0.00636182,0.00000009,-0.00606378,0.00135510,-0.0000000
 4,-0.03124692,-0.13937369,-0.00000014,-0.03760184,-0.20213801,0.000000
 40,-0.01362420,-0.01026511,0.,0.02730484,0.01906151,0.00000012,0.01690
 713,-0.02474867,0.00000014,-0.02674299,0.70500837,0.00000002,0.0000000
 2,0.00001444,0.00000003,-0.00000005,0.00002661,0.,0.,0.00000566,0.,0.0
 0000003,0.00009106,0.00000003,-0.00000002,0.00003417,0.00000002,-0.000
 00002,-0.00051294,0.00000001,-0.00000002,-0.00000915,-0.00000003,-0.00
 000002,0.00006018,0.,0.00000002,0.00000842,-0.00000002,0.,-0.00000710,
 0.,0.00000002,-0.00002002,0.00000001,-0.00000003,-0.00001768,-0.000000
 01,0.00000002,0.00000994,-0.00000001,0.,-0.00004759,-0.00000002,0.,-0.
 00082808,0.,0.00000001,-0.00001148,0.,0.00000005,-0.00066111,-0.000000
 02,0.,-0.00000165,0.00000023,0.00000034,0.00000014,0.,-0.00000006,0.00
 055175,0.00000004,-0.00000001,0.00011363,0.,-0.00000014,0.01145127,-0.
 00000005,0.00000001,0.00000318,-0.00000034,0.00000019,-0.01281785,-0.0
 0000011,-0.00000055,0.02288529,-0.00000123,0.00000124,-0.05839120,0.00
 000002,0.00000001,-0.00011224,-0.00000002,0.00000002,-0.00000500,0.,0.
 00000002,0.00015210,-0.00000001,0.,0.00006019,0.00000002,-0.00000004,0
 .00001614,0.00000002,0.00000001,0.00000166,-0.00000002,-0.00000002,-0.
 00015159,0.,0.00000002,0.00034741,-0.00000002,-0.00000003,0.00001943,-
 0.00000008,0.00000006,0.00061557,0.00000003,-0.00000003,0.00047817,-0.
 00000085,0.00000020,-0.07771639,-0.00000031,0.00000017,-0.06205053,0.,
 0.,0.00133543,-0.00000016,0.00000008,0.00351678,0.00000007,0.00000019,
 0.00066758,0.00000282,-0.00000164,0.15971939,-0.00351340,-0.00518504,0
 .,0.00068760,0.00101427,0.,-0.00144794,-0.00115117,0.00000002,0.000359
 34,-0.00016699,0.,0.00081933,-0.00005738,-0.00000003,-0.00011678,0.000
 01181,0.00000003,-0.00032105,0.00017429,-0.00000002,0.00002379,0.00060
 335,0.,-0.00029798,-0.00024775,0.,-0.00030996,0.00212420,0.,0.00132202
 ,0.00027433,-0.00000002,0.00356081,-0.00346690,-0.00000001,-0.00076042
 ,-0.00055799,0.00000004,-0.00057823,-0.00027251,0.,0.00006612,-0.00002
 708,-0.00000001,0.00047932,0.00479840,0.,0.00034255,-0.00015276,0.0000
 0002,-0.00120455,0.00806539,0.00000004,-0.00044780,-0.00044289,0.,-0.0
 0004163,0.00045794,-0.00000002,-0.00030982,0.00012697,-0.00000001,-0.0
 0005998,0.00006483,0.00000002,0.00041008,-0.00016714,0.00000002,0.0006
 5608,-0.00065838,0.,-0.00014667,0.00111871,0.00000003,-0.00010426,0.00
 072700,0.,0.00168503,-0.00889531,0.00000005,-0.00400671,0.01505966,-0.
 00000002,-0.07834557,0.07312959,-0.00000035,-0.04278036,-0.02887577,0.
 00000031,0.02126831,-0.00275242,-0.00000005,-0.00292360,-0.01157582,0.
 ,-0.31571327,-0.04560484,0.00000081,0.06443448,-0.00345646,-0.00000010
 ,-0.12527455,0.06921927,-0.00000051,0.01051245,0.01250116,-0.00000008,
 -0.15805512,-0.02021232,0.00000023,0.00086058,-0.00154462,-0.00000001,
 0.00594941,-0.00168345,0.00000005,-0.00275807,-0.00146942,-0.00000002,
 -0.00004857,0.00258161,0.,0.00245545,0.00846902,-0.00000006,-0.0010168
 7,-0.00134659,0.,0.68870062,-0.00118714,-0.00118284,-0.00000003,0.0005
 6792,-0.00001024,0.00000005,-0.00003474,0.00017927,0.,0.00019117,0.000
 08153,0.,0.00025666,-0.00031997,-0.00000003,-0.00047784,-0.00046946,0.
 00000006,0.00017416,0.00055998,-0.00000002,-0.00004240,0.00056197,0.00
 000003,0.00007287,-0.00014300,-0.00000001,0.00023074,-0.00013682,-0.00
 000001,-0.00006981,0.00031623,-0.00000002,0.00191182,-0.00151290,0.000
 00003,-0.00005466,-0.00000453,0.00000008,-0.00037301,-0.00014780,-0.00
 000012,0.00006801,-0.00002803,-0.00000013,0.00053032,0.00396304,-0.000
 00012,-0.00004221,0.00002157,0.00000008,-0.00032438,0.00194212,0.00000
 010,0.00000225,0.00074594,0.00000003,0.00024278,-0.00062556,-0.0000000
 3,0.00011607,-0.00010663,-0.00000002,0.00005871,0.00004796,0.00000007,
 -0.00053289,0.00006627,0.,-0.00031482,0.00098226,-0.00000002,0.0001441
 2,-0.00147093,0.00000009,0.00030725,-0.00130061,-0.00000010,0.00478593
 ,-0.00731974,0.00000007,-0.00056453,0.00542805,-0.00000002,0.03964392,
 0.01602011,-0.00000027,-0.03214569,-0.01062530,0.00000013,0.00546717,-
 0.00488453,0.00000007,-0.00353686,-0.00447443,-0.00000001,-0.04377676,
 -0.12422519,0.00000062,0.04255589,-0.06342038,0.00000043,0.04716471,-0
 .23017064,0.00000112,-0.00821161,-0.01388162,0.00000001,-0.05988349,-0
 .21654857,0.00000120,-0.00124567,0.00188173,-0.00000003,-0.01062161,0.
 00231622,0.,0.00143831,0.00030576,-0.00000002,0.00001913,-0.00186520,0
 .,0.00042980,-0.00985509,0.00000004,0.00116069,0.00246958,0.00000003,-
 0.02555080,0.64048822,0.,0.,-0.00000943,-0.00000002,0.,0.00015221,0.,0
 .,-0.00000888,-0.00000001,0.,0.00000016,-0.00000004,0.00000002,0.00001
 483,0.,0.,0.00001447,0.00000002,0.00000001,0.00000421,0.00000001,0.,-0
 .00002005,0.00000001,0.,-0.00000163,0.,0.,-0.00002858,0.,0.00000002,0.
 00000829,-0.00000003,0.00000003,-0.00000914,0.00000002,-0.00000001,-0.
 00001513,0.00000002,-0.00000001,-0.00003412,-0.00000001,-0.00000001,-0
 .00002438,0.,-0.00000004,-0.00064885,0.,-0.00000002,-0.00000535,0.0000
 0002,-0.00000003,-0.00003645,0.,0.,0.00003422,-0.00000001,0.,-0.000012
 36,0.,0.00000003,0.00000842,0.00000001,0.,0.00000167,0.,0.,-0.00000143
 ,0.00000002,-0.00000001,0.00000828,-0.00000002,0.,0.00001809,-0.000000
 02,0.,-0.00005153,-0.00000005,0.00000007,0.00061624,0.00000002,-0.0000
 0008,-0.00000049,-0.00000011,-0.00000033,-0.00085408,0.00000029,0.0000
 0004,-0.01289165,-0.00000005,0.00000012,0.01127383,0.,0.00000007,0.000
 50079,0.00000070,0.00000058,-0.06172565,-0.00000039,0.00000070,0.02532
 386,-0.00000033,0.00000118,-0.06338557,0.00000005,0.00000004,-0.003313
 22,0.00000058,0.00000099,-0.07759663,0.00000002,0.,0.00002876,0.000000
 07,0.,0.00011303,0.,0.,0.00009680,-0.00000001,0.,0.00001969,0.,0.00000
 004,0.00050058,0.,-0.00000002,-0.00045282,-0.00000044,-0.00000346,0.16
 411042,0.00058259,0.00105349,0.,-0.00053136,-0.00022565,0.,0.00026383,
 0.00000258,0.,0.00012647,-0.00020690,0.,-0.00020651,0.00052440,0.,0.00
 058309,-0.00015733,0.,0.00002385,-0.00004234,0.,0.00001146,-0.00071290
 ,0.,-0.00029681,-0.00007435,0.,-0.00015711,-0.00028220,0.,-0.00003230,
 -0.00008076,0.,-0.00093617,0.00167556,0.,-0.00004243,-0.00005494,0.,0.
 00039675,0.00024198,0.00000002,-0.00059776,0.00025100,0.00000002,-0.00
 025644,-0.00315796,0.00000002,-0.00011437,0.00009654,0.,0.00017104,-0.
 00162960,0.,0.00181414,0.00095576,0.,-0.00008812,-0.00007533,0.,0.0004
 7157,0.00032631,0.,0.00054820,-0.00081836,0.,-0.00011026,0.00020342,0.
 ,-0.00091896,0.00088131,0.,-0.00021136,-0.00098557,0.,0.00176372,-0.00
 153685,0.00000003,-0.00258979,0.00537657,-0.00000001,0.00007325,-0.001
 09267,0.,-0.00158720,-0.01164111,0.00000010,0.02251084,0.00635576,-0.0
 0000014,0.00060156,-0.00096749,0.,0.00151841,0.00281026,-0.00000002,-0
 .00528509,0.00474730,-0.00000004,-0.06389962,0.03337273,-0.00000020,-0
 .01917001,0.00788653,-0.00000007,-0.17360471,0.06728153,-0.00000082,-0
 .22246885,-0.01801854,0.,-0.00122366,0.00093695,-0.00000002,-0.0630038
 6,-0.05510809,0.00000004,-0.00348124,-0.00413421,0.,0.00038742,0.00095
 687,0.,0.00769151,-0.00027026,0.00000009,-0.00446468,0.00921767,-0.000
 00011,-0.00081394,-0.03022840,0.00000017,0.66817548,0.00060629,0.00009
 449,-0.00000003,-0.00020616,-0.00037305,0.00000002,-0.00010919,0.00002
 815,0.,0.00000994,0.00015200,0.,0.00003431,-0.00037997,-0.00000002,0.0
 0046405,-0.00116759,0.00000006,0.00060329,0.00056184,-0.00000001,-0.00
 071294,-0.00009372,0.,0.00019297,0.00001745,0.,0.00005267,0.00015023,0
 .,-0.00007444,0.00002040,-0.00000003,-0.00068727,0.00047242,0.00000004
 ,0.00009164,0.00007781,0.00000006,0.00034788,0.00028405,-0.00000003,-0
 .00119022,0.00038716,-0.00000007,-0.00024685,-0.00090166,-0.00000005,-
 0.00046499,0.00021955,0.00000004,0.00022729,-0.00018037,0.00000006,0.0
 0408098,0.00602532,0.00000006,0.00028020,-0.00063916,0.,0.00077122,-0.
 00017329,0.,0.00154490,-0.00101184,0.00000003,-0.00086308,0.00017222,-
 0.00000001,-0.00449918,0.00296532,-0.00000004,0.00038809,-0.00584211,0
 .00000005,0.00272710,-0.01006332,-0.00000002,0.00076782,0.00254853,-0.
 00000001,-0.00023717,-0.00066773,0.,0.00204820,-0.00404163,0.00000002,
 0.00937694,-0.00437193,0.00000012,-0.00056230,0.00067149,-0.00000002,0
 .00030261,-0.00006586,-0.00000003,-0.00661792,-0.00482625,0.00000012,0
 .03226996,0.00757229,-0.00000016,0.00194443,-0.00075408,0.00000002,0.0
 2769129,-0.20110505,0.00000091,-0.00210999,-0.10562615,0.00000048,-0.0
 0799645,0.00949047,-0.00000006,-0.08783011,-0.01066263,-0.00000026,0.0
 0810942,0.00149417,0.,-0.00008210,-0.01020005,0.00000003,0.00299569,-0
 .06114701,0.00000030,0.00619061,0.02259476,0.00000001,-0.02484126,-0.0
 0158740,0.,0.03764899,0.68576208,0.00000003,0.00000001,0.00015228,0.00
 000003,-0.00000004,-0.00011228,0.,-0.00000001,-0.00000498,0.,0.0000000
 3,0.00000567,0.00000002,0.,0.00001444,0.,0.00000001,0.00002668,0.,-0.0
 0000002,-0.00002005,-0.00000001,0.,-0.00001777,0.,0.,-0.00000710,-0.00
 000002,0.00000001,0.00001613,0.,0.00000004,0.00000166,0.,-0.00000002,0
 .00006020,0.,0.00000001,-0.00000167,0.,-0.00000003,-0.00001160,0.00000
 003,-0.00000002,-0.00004774,0.00000002,0.,0.00034755,0.00000002,0.,0.0
 0000993,-0.00000002,0.,-0.00015178,-0.00000002,-0.00000005,-0.00051363
 ,0.00000003,0.,0.00009125,-0.00000002,0.00000002,0.00003420,-0.0000000
 4,-0.00000001,0.00006007,0.,-0.00000002,0.00000840,-0.00000001,0.,-0.0
 0000886,0.00000002,0.00000002,-0.00066079,0.,0.00000006,-0.00082838,0.
 ,-0.00000002,0.00048048,0.,0.00000003,0.00001888,-0.00000002,0.0000000
 8,0.00061628,-0.00000004,0.00000010,0.01144759,0.,-0.00000006,-0.00215
 867,0.00000001,0.,-0.00045347,0.00000008,0.00000006,0.00489445,-0.0000
 0026,-0.00000010,-0.00571363,-0.00000006,0.00000002,0.00140391,-0.0000
 0056,0.00000120,-0.07771030,-0.00000030,0.00000037,-0.06205051,0.00000
 007,-0.00000004,0.00011321,0.00000030,-0.00000014,0.00000200,-0.000000
 06,-0.00000004,0.00054987,0.,0.00000007,0.00000124,0.00000004,0.000000
 38,-0.01287967,-0.00000018,-0.00000010,0.01145356,0.00000020,-0.000000
 01,0.00068184,0.00000101,-0.00000361,0.15955569,-0.00039511,-0.0015362
 2,-0.00000002,0.00002169,0.00009113,0.00000003,-0.00061974,-0.00041760
 ,0.,0.00015912,-0.00000994,0.,0.00035526,-0.00014331,-0.00000002,0.000
 09401,-0.00002025,0.00000005,-0.00029790,0.00007291,-0.00000003,-0.000
 29684,0.00019294,0.00000003,-0.00005768,-0.00010589,0.,-0.00006966,0.0
 0091284,0.,0.00045517,0.00014111,-0.00000002,0.00038737,-0.00049085,0.
 00000004,-0.00026733,-0.00018689,0.00000007,0.00002316,0.00002378,-0.0
 0000009,0.00000537,0.00000526,-0.00000010,-0.00000710,0.00072340,-0.00
 000010,0.00039089,-0.00019823,0.00000008,-0.00028927,0.00216893,0.0000
 0008,-0.00051324,-0.00043117,0.00000004,0.00012232,0.00094587,-0.00000
 001,-0.00072997,-0.00011784,-0.00000002,-0.00002576,0.00035775,0.00000
 004,0.00066725,-0.00048759,0.,0.00083960,-0.00146104,-0.00000001,-0.00
 001520,0.00218927,0.00000007,0.00000606,0.00012514,-0.00000010,0.00029
 095,-0.00090989,0.00000003,-0.00061147,0.00280156,-0.00000002,-0.00559
 209,0.01373529,-0.00000010,-0.00717370,-0.00532262,0.00000009,0.003183
 80,-0.00079996,-0.00000002,-0.00028480,-0.00271795,-0.00000002,0.02031
 489,-0.00409822,0.00000006,0.00598084,-0.00390392,-0.00000007,-0.44057
 380,-0.04782800,-0.00000003,-0.10871598,-0.02597422,0.00000004,-0.0170
 5999,-0.00478002,0.00000005,-0.00006689,-0.00245451,-0.00000002,0.0021
 8776,-0.00620910,0.00000009,-0.00293759,-0.00318952,-0.00000001,-0.000
 37687,0.00285630,-0.00000001,0.00047466,0.01475421,-0.00000013,0.00131
 632,0.00055544,0.00000004,-0.04908523,0.03209851,-0.00000023,0.0329000
 0,0.00330055,0.00000008,0.78974494,-0.00041978,-0.00087321,0.00000002,
 -0.00002070,0.00027037,-0.00000002,-0.00034973,-0.00033912,0.,0.000051
 62,-0.00007904,0.,0.00021496,0.00008556,0.00000001,0.00019663,0.000184
 52,-0.00000003,-0.00024783,-0.00014301,0.00000001,-0.00007434,0.000017
 52,0.,-0.00010592,-0.00003510,0.,-0.00014271,0.00046827,0.,0.00050647,
 0.00002107,0.00000002,0.00057526,-0.00032538,-0.00000001,-0.00025531,-
 0.00018312,-0.00000005,-0.00002310,-0.00001058,0.00000005,-0.00005138,
 0.00001714,0.00000006,0.00009141,0.00058728,0.00000005,0.00022132,-0.0
 0010252,-0.00000005,-0.00015970,0.00115685,-0.00000006,-0.00007596,-0.
 00021441,-0.00000002,-0.00010668,0.00082450,0.,-0.00033331,0.00006274,
 0.00000001,0.00002299,0.00001907,-0.00000002,0.00056850,-0.00026876,0.
 ,0.00043309,-0.00128713,0.00000002,-0.00008815,0.00194826,-0.00000005,
 0.00000416,0.00015477,0.00000006,-0.00005426,-0.00088699,0.,-0.0002244
 5,0.00154540,0.,-0.00189188,0.00701523,-0.00000004,-0.00428526,-0.0026
 3949,0.00000001,0.00172525,-0.00103015,0.,-0.00015550,-0.00162885,0.00
 000002,0.01419440,-0.00845180,0.00000002,0.00482147,-0.00236592,0.0000
 0004,-0.00547609,-0.13414438,0.00000056,-0.04802543,-0.24694056,0.0000
 0105,-0.01086852,-0.00276407,0.,0.00045345,-0.00238793,0.00000002,0.00
 603084,-0.00417944,0.00000003,-0.00286113,-0.00072545,0.,0.00033068,0.
 00253139,0.,0.00653347,0.01590485,0.00000002,0.00015112,-0.00004148,-0
 .00000004,0.01540733,0.02348983,-0.00000010,0.00308067,-0.03350958,0.0
 0000020,-0.05332820,0.64384124,-0.00000002,0.,-0.00000885,-0.00000002,
 0.00000001,-0.00000500,0.,0.,-0.00000144,0.,0.,0.00000093,-0.00000004,
 0.00000002,0.00000016,0.,-0.00000001,0.00000564,0.00000003,0.00000003,
 -0.00000163,0.00000001,0.,-0.00000712,0.,-0.00000001,0.00000045,0.0000
 0001,0.,0.00000498,0.,0.,-0.00000142,-0.00000001,0.00000002,0.00000839
 ,0.00000002,-0.00000001,0.00000189,0.,0.,0.00000738,-0.00000001,0.,0.0
 0000596,0.,0.,0.00000663,-0.00000002,-0.00000002,-0.00000257,0.0000000
 1,0.,-0.00000368,0.,0.00000001,0.00009131,-0.00000001,0.,0.00000107,0.
 00000001,0.00000003,-0.00001236,0.00000002,0.,0.00001613,0.,0.,0.00000
 499,0.00000004,0.,-0.00002866,-0.00000002,0.,0.00011013,0.,0.,0.000118
 61,0.,0.,0.00001913,0.00000001,-0.00000002,-0.00009046,0.,-0.00000004,
 -0.00000077,0.00000001,0.,-0.00000024,-0.00000001,0.00000003,-0.000284
 17,-0.00000001,0.,0.00001965,-0.00000006,0.00000009,0.00422647,-0.0000
 0002,0.,-0.00072923,-0.00000038,0.00000050,-0.05464446,0.00000025,0.00
 000105,-0.06342894,0.00000004,0.00000004,0.00133996,0.,0.00000001,0.00
 009720,-0.00000002,0.,0.00055090,0.,0.00000001,0.00086151,0.,0.,-0.000
 28397,-0.00000008,-0.00000002,0.01127502,0.00000003,0.,-0.00215973,-0.
 00000013,-0.00000014,0.00227647,0.00000003,0.00000030,0.00355790,0.000
 00108,-0.00000315,0.13101681,-0.00040700,-0.00033491,-0.00000002,0.000
 48728,0.00020912,0.,-0.00000632,0.00003461,0.,-0.00000209,0.00004789,0
 .,0.00007033,-0.00005124,-0.00000003,-0.00072789,0.00099413,0.00000004
 ,-0.00057823,-0.00037303,-0.00000002,0.00039675,0.00034784,0.,0.000023
 19,-0.00002312,0.00000002,0.00003425,-0.00002189,0.00000001,-0.0000221
 7,0.00007798,-0.00000003,0.00054719,-0.00091236,0.00000001,-0.00001728
 ,0.00001233,0.00000004,-0.00039650,-0.00025250,0.00000002,0.00171757,-
 0.00050647,-0.00000001,0.00002897,0.00148528,0.,0.00061017,-0.00031365
 ,0.00000003,-0.00009492,0.00055511,0.00000004,-0.00578162,-0.00784777,
 -0.00000001,0.00003014,0.00014441,0.,-0.00131738,-0.00028757,-0.000000
 02,-0.00221543,0.00202479,0.,0.00079102,-0.00026178,0.,0.00540256,-0.0
 0195693,0.00000003,-0.00240249,0.00457514,0.00000001,-0.00406151,0.018
 30784,-0.00000008,0.00103957,-0.00207397,-0.00000002,-0.00005835,0.000
 68052,0.,-0.00009291,0.00432182,-0.00000005,-0.00659319,-0.00328803,0.
 00000006,0.00017357,-0.00002845,0.,-0.00055414,-0.00098620,-0.00000002
 ,0.00202499,-0.00455702,0.00000006,0.00892662,-0.01085282,0.00000004,0
 .00588296,-0.00338165,0.00000004,0.06734600,-0.01952114,0.00000026,-0.
 05059280,-0.04243513,0.00000023,0.01080140,-0.01264805,0.00000003,-0.3
 5203981,0.00521241,-0.00000166,-0.00322880,0.00516563,-0.00000002,-0.0
 0067151,0.00774663,-0.00000001,-0.04818930,0.06861297,-0.00000083,-0.0
 3871022,-0.04787945,0.00000003,-0.01110306,0.01434459,-0.00000012,-0.1
 2964360,-0.07133191,0.00000035,-0.00489278,0.00081296,-0.00000007,0.60
 661454,-0.00043565,-0.00031940,0.00000003,0.00031447,0.00019308,0.,-0.
 00001219,0.00001891,-0.00000001,-0.00000864,0.00002476,0.,0.00004392,-
 0.00003172,0.00000003,-0.00044623,0.00051877,-0.00000005,-0.00027247,-
 0.00014777,0.00000002,0.00024203,0.00028407,0.,0.00002379,-0.00001058,
 -0.00000001,0.00003469,-0.00001157,0.,-0.00001755,0.00006056,0.0000000
 3,0.00052777,-0.00075739,-0.00000004,0.00001229,-0.00002638,-0.0000000
 6,-0.00025249,-0.00021016,0.,0.00086762,-0.00032776,0.00000004,0.00010
 545,0.00135805,0.00000002,0.00029745,-0.00018313,-0.00000003,-0.000055
 68,0.00052183,-0.00000006,-0.00358225,-0.00252089,-0.00000005,0.000024
 32,0.00013050,0.00000001,-0.00070743,-0.00008787,0.,-0.00088414,0.0010
 5859,-0.00000002,0.00037000,-0.00021090,0.,0.00231564,-0.00095601,0.00
 000002,-0.00293792,0.00201621,-0.00000006,-0.00609529,0.00616493,-0.00
 000001,0.00083607,-0.00219761,0.00000001,0.00004839,0.00063823,0.,0.00
 005089,0.00453676,-0.00000003,-0.00754977,-0.00170810,0.,0.00009289,-0
 .00001262,0.,-0.00056656,-0.00085109,0.00000004,0.00295926,-0.00241001
 ,-0.00000003,0.01356570,-0.00673663,0.00000011,0.00534010,-0.00227793,
 0.00000001,0.02634085,-0.06613624,0.00000078,-0.04352806,-0.00566916,-
 0.00000015,0.00632754,-0.01172517,0.00000009,0.01003580,-0.10554306,0.
 00000020,0.00020900,-0.00708330,0.00000008,-0.00097612,0.00429029,-0.0
 0000003,0.02274362,0.04939125,-0.00000001,-0.04679623,-0.01757703,-0.0
 0000022,-0.00463464,0.01019905,-0.00000002,-0.07615840,-0.32778790,0.0
 0000167,0.00577461,-0.00542525,0.00000006,0.13343237,0.50906635,-0.000
 00011,-0.00000006,-0.00003404,-0.00000007,0.00000010,-0.00001153,0.,0.
 00000002,0.00000735,0.,-0.00000006,0.00000592,-0.00000015,0.00000008,-
 0.00002435,-0.00000001,-0.00000006,-0.00004780,0.00000009,0.00000010,-
 0.00003410,0.00000007,-0.00000001,-0.00001161,0.00000003,-0.00000005,0
 .00000734,0.00000006,-0.00000002,0.00000589,0.,-0.00000003,-0.00002434
 ,-0.00000003,0.00000007,-0.00004765,0.00000007,-0.00000006,0.00001894,
 0.00000004,0.00000003,0.00011355,-0.00000007,0.00000005,0.00014552,0.0
 0000001,-0.00000003,0.00014601,-0.00000007,-0.00000009,0.00000709,0.00
 000007,0.00000004,0.00000706,-0.00000002,0.00000004,-0.00082876,-0.000
 00008,0.,0.00011866,0.00000005,0.00000008,-0.00005154,0.00000008,0.000
 00001,0.00034740,0.,0.00000005,0.00000670,0.00000018,-0.00000006,-0.00
 064823,-0.00000009,0.00000007,0.00082194,-0.00000003,0.00000002,0.0017
 6631,-0.00000003,-0.00000001,0.00034752,0.00000006,-0.00000007,0.00000
 665,0.,-0.00000007,-0.00064859,0.00000005,-0.00000003,-0.00082812,-0.0
 0000003,0.00000013,0.00011866,-0.00000007,-0.00000001,-0.00005144,0.00
 000003,0.00000007,0.00082204,-0.00000005,0.00000004,0.00175811,0.00000
 003,0.00000008,-0.00072674,0.00000011,0.00000044,0.02533756,0.00000014
 ,-0.00000009,-0.00571000,-0.00000004,-0.00000004,0.00361897,-0.0000016
 8,0.00000026,-0.05837808,-0.00000004,0.00000016,0.00386729,0.00000002,
 0.,-0.00072829,-0.00000044,0.00000004,0.02536991,0.00000016,-0.0000001
 3,-0.00572158,0.,-0.00000010,0.00362127,0.00000033,0.00000162,-0.05831
 688,-0.00000018,0.00000013,0.00386818,0.00000161,-0.00000234,0.0776239
 0,-0.00029126,-0.00072954,-0.00000001,0.00007551,-0.00009800,0.0000000
 3,-0.00033566,-0.00016189,0.,0.00038014,-0.00013681,0.,0.00030001,0.00
 009071,-0.00000002,-0.00016698,0.00039721,0.00000003,-0.00076046,-0.00
 005464,-0.00000001,-0.00004245,0.00009166,0.00000002,-0.00026733,-0.00
 025532,0.,0.00001090,0.00041763,0.,0.00018602,0.00024307,0.,0.00029525
 ,-0.00033307,0.00000001,-0.00026511,-0.00015727,0.00000004,-0.00001730
 ,0.00001229,-0.00000006,0.00058403,-0.00016306,-0.00000006,0.00002208,
 0.00065306,-0.00000005,0.00090477,-0.00040965,0.00000004,-0.00019734,0
 .00104594,0.00000005,-0.00323128,-0.00351137,0.,0.00010572,0.00229044,
 -0.00000001,-0.00154779,-0.00005284,-0.00000001,-0.00069949,0.00112626
 ,0.00000003,0.00166532,-0.00104049,0.,0.00450679,-0.00476786,0.0000000
 2,0.00034907,0.00828080,0.00000004,-0.00060794,0.00607723,-0.00000008,
 0.00065393,-0.00122516,0.00000002,-0.00042778,0.00205374,-0.00000001,-
 0.00316445,0.00642777,-0.00000005,-0.00469496,-0.00160236,0.00000005,0
 .00236721,-0.00081367,-0.00000002,-0.00059314,-0.00137649,-0.00000001,
 0.00854345,-0.00354928,0.00000006,0.00162015,-0.00225327,-0.00000005,0
 .02115638,-0.00900864,0.00000007,-0.32522272,0.00898514,-0.00000088,-0
 .00553953,0.00648968,-0.00000009,0.00363338,-0.01085653,0.00000002,0.0
 6622194,-0.01432324,0.00000035,-0.04054975,-0.05825275,0.00000014,-0.0
 0562700,0.01907861,-0.00000010,-0.13292717,-0.05964925,-0.00000004,-0.
 00411602,-0.00538935,0.00000001,-0.01020909,0.00951416,-0.00000006,-0.
 04336099,0.06676446,-0.00000064,-0.05349665,-0.03381740,0.00000008,-0.
 04739370,-0.03772091,0.00000005,0.56804702,-0.00022627,-0.00047378,0.0
 0000002,0.00004858,-0.00004007,-0.00000001,-0.00023030,-0.00011483,0.,
 0.00028259,-0.00009174,0.,0.00020134,0.00006402,0.00000002,-0.00016412
 ,0.00027181,-0.00000004,-0.00055791,-0.00000451,0.,-0.00005492,0.00007
 781,-0.00000001,-0.00018688,-0.00018312,0.,-0.00000182,0.00027756,0.,0
 .00013234,0.00017797,0.,0.00022816,-0.00019035,-0.00000003,-0.00015726
 ,-0.00015015,-0.00000002,0.00001232,-0.00002638,0.00000003,0.00044783,
 -0.00015726,0.00000004,0.00004241,0.00040469,0.00000002,0.00064304,-0.
 00043006,-0.00000001,-0.00000659,0.00067211,-0.00000004,-0.00213771,-0
 .00282387,-0.00000003,0.00001303,0.00182679,0.00000001,-0.00102778,-0.
 00007039,0.,-0.00073016,0.00068991,-0.00000004,0.00128853,-0.00079796,
 0.,0.00362291,-0.00377153,0.00000003,-0.00055250,0.00681264,-0.0000000
 4,-0.00143774,0.00022224,0.00000002,0.00063151,-0.00066371,0.,-0.00027
 548,0.00129498,0.,-0.00196315,0.00390076,0.,-0.00297705,-0.00136135,-0
 .00000002,0.00146395,-0.00043425,0.,-0.00040173,-0.00102497,0.00000002
 ,0.00528546,-0.00138231,-0.00000003,0.00526391,-0.00200732,0.00000006,
 0.00927828,-0.00930821,0.00000010,0.01072212,-0.11446789,0.00000043,-0
 .00486208,-0.00452112,0.00000004,0.00444272,-0.00973008,0.00000005,0.0
 2664529,-0.06252821,0.00000058,-0.03853031,-0.01982046,-0.00000006,0.0
 0078734,0.01749221,-0.00000003,-0.06135003,-0.30654765,0.00000108,0.00
 596807,-0.00595572,0.00000010,-0.00578586,0.00413146,-0.00000002,0.025
 75838,0.04703470,-0.00000010,-0.05353883,-0.00689790,-0.00000012,-0.03
 771927,-0.01986191,-0.00000014,0.11136572,0.48659037,0.00000009,0.0000
 0004,-0.00001514,0.00000007,-0.00000004,-0.00000167,0.,0.00000002,0.00
 000191,0.00000002,0.00000002,-0.00000254,0.00000011,-0.00000007,-0.000
 00537,0.00000001,0.00000003,0.00000996,-0.00000008,-0.00000007,-0.0000
 1513,-0.00000004,-0.00000002,-0.00000168,-0.00000004,0.00000005,0.0000
 0190,-0.00000004,0.,-0.00000254,0.,-0.00000003,-0.00000538,0.00000003,
 -0.00000005,0.00000993,-0.00000006,0.00000005,0.00000502,-0.00000004,0
 .00000003,0.00001898,0.00000006,0.00000001,0.00000709,-0.00000006,0.,0
 .00000714,0.00000004,0.00000007,0.00003676,-0.00000006,-0.00000002,0.0
 0003679,0.,-0.00000005,-0.00066097,0.00000005,0.,0.00011014,-0.0000000
 2,-0.00000009,0.00001811,-0.00000006,0.,-0.00015162,-0.00000002,0.,-0.
 00000364,-0.00000014,0.00000004,-0.00003620,0.00000009,-0.00000003,-0.
 00016535,0.00000006,0.00000005,0.00082218,0.00000003,0.00000003,-0.000
 15176,-0.00000006,0.00000002,-0.00000364,0.,0.00000008,-0.00003635,0.0
 0000002,0.,-0.00066093,0.,-0.00000007,0.00011017,0.00000008,0.,0.00001
 812,-0.00000005,-0.00000007,-0.00016588,-0.00000006,-0.00000003,0.0008
 2204,-0.00000004,0.,0.00422665,-0.00000098,0.00000041,-0.06170810,0.00
 000003,0.00000010,0.00489379,-0.00000005,-0.00000001,-0.00094690,-0.00
 000006,0.00000045,0.02286747,0.00000005,-0.00000018,-0.00435036,-0.000
 00002,0.,0.00422784,0.00000002,0.00000117,-0.06164704,-0.00000014,0.00
 000002,0.00489321,0.00000006,0.00000010,-0.00094787,-0.00000039,0.0000
 0017,0.02289836,0.00000028,-0.00000013,-0.00435877,0.00000016,-0.00000
 015,-0.01595032,0.00000107,-0.00000187,0.08924590,-0.00001732,0.000008
 55,0.,0.00004538,0.00006348,0.00000002,0.00000195,-0.00001078,0.,0.000
 12169,-0.00008505,0.,-0.00004348,0.00001744,0.,0.00077711,-0.00015367,
 0.00000002,-0.00038874,0.00056744,0.,0.00010431,0.00015974,0.00000001,
 -0.00009368,-0.00004727,0.,-0.00001241,0.,0.,-0.00000153,0.00001410,0.
 ,0.00001983,-0.00000171,0.00000002,-0.00003980,0.00001026,0.00000003,-
 0.00005135,-0.00003009,-0.00000004,-0.00113565,-0.00221521,-0.00000006
 ,-0.00000361,-0.00000094,-0.00000004,0.00408700,-0.00039921,0.00000005
 ,-0.00000345,-0.00000805,0.00000003,-0.00055159,0.00069696,0.00000002,
 0.01222218,0.01887911,0.00000009,-0.00962223,-0.03069034,-0.00000019,-
 0.00507565,0.00281858,0.,-0.10558791,-0.10641801,-0.00000073,-0.002395
 47,0.00214226,-0.00000007,0.00040952,0.00092670,0.00000002,0.00018176,
 -0.00025894,-0.00000004,-0.00001915,0.00000149,0.00000001,0.00000702,-
 0.00000099,0.,-0.00001250,-0.00001506,0.,0.00000506,0.00002398,0.00000
 002,0.00000016,-0.00000898,0.,0.00001769,0.00000715,0.,0.00000538,-0.0
 0000295,0.00000002,0.00000510,-0.00000558,-0.00000004,-0.00000077,0.00
 001143,0.,-0.00000281,-0.00002311,0.,-0.00001890,-0.00000915,0.0000000
 2,0.00004028,0.00023222,0.,0.00001216,-0.00006608,0.00000002,0.0000022
 5,0.00003814,0.,0.00009503,0.00002765,0.,-0.00004118,0.00001011,0.,-0.
 00012984,0.00007412,0.00000001,0.00000038,0.00001919,0.,-0.00001822,0.
 00002421,0.,0.00001939,-0.00000383,0.,0.00001331,0.00000986,-0.0000000
 4,0.00002147,0.00001351,0.00000002,0.10620802,-0.00001276,0.00000233,0
 .,-0.00000461,0.00002078,0.00000002,-0.00000253,-0.00001735,0.,0.00001
 520,-0.00006459,0.,0.00001565,0.00005829,0.,0.00012338,0.00049999,0.00
 000002,-0.00040916,-0.00012721,-0.00000001,0.00003312,-0.00003043,0.00
 000002,-0.00006456,-0.00000680,0.,-0.00000656,0.00000388,0.,0.00002475
 ,0.00000133,0.,0.00001207,0.00001256,0.00000002,-0.00004151,-0.0000108
 9,0.00000004,-0.00001614,-0.00000547,-0.00000005,0.00026047,-0.0003123
 1,-0.00000006,-0.00000318,-0.00000402,-0.00000006,0.00058962,0.0007735
 3,0.00000005,-0.00000682,-0.00000198,0.00000004,0.00034481,0.00029134,
 0.00000003,-0.01188275,-0.01776604,-0.00000014,0.00074926,0.00042578,-
 0.00000002,0.00010151,0.00085753,0.00000001,-0.10707516,-0.29661159,-0
 .00000150,0.00363846,-0.00040227,-0.00000003,-0.00046030,-0.00118706,0
 .00000003,-0.00016343,-0.00008321,-0.00000005,-0.00001344,-0.00000269,
 0.00000002,0.00000504,0.00000089,-0.00000001,-0.00000709,0.00000041,0.
 ,-0.00000318,0.00000295,0.00000002,0.00000219,-0.00000125,0.,0.0000108
 7,-0.00000123,0.,0.00000117,-0.00000732,0.00000003,-0.00000255,-0.0000
 0296,-0.00000006,0.00000217,0.00000101,0.,0.00000298,0.00001293,0.,0.0
 0000636,-0.00000217,0.00000002,0.00018099,-0.00017928,0.,-0.00001238,0
 .00001300,0.00000002,0.00004447,-0.00003485,0.,-0.00010800,-0.00006585
 ,0.,0.00003760,0.00000918,0.,0.00006366,0.00006483,0.00000002,-0.00000
 378,0.00000278,0.,-0.00000261,-0.00000850,0.00000001,-0.00000404,0.000
 00107,-0.00000001,-0.00000845,-0.00001149,-0.00000005,-0.00000874,-0.0
 0002092,0.00000004,0.11395771,0.31293123,0.,0.,0.00000198,0.,-0.000000
 02,0.00000075,0.,-0.00000001,-0.00000229,0.,0.,0.00009914,0.,0.,0.0000
 1897,0.,0.00000001,-0.00000016,0.,0.,-0.00039838,0.,0.,0.00007437,0.,0
 .00000002,0.00000288,0.,0.,0.00000038,0.,0.00000003,0.00000509,0.,0.,0
 .00000110,0.,0.,-0.00001377,0.,-0.00000002,-0.00000479,0.,-0.00000003,
 -0.00014002,0.00000002,0.,-0.00000320,0.00000004,0.00000001,-0.0024063
 7,0.,0.,-0.00000277,0.00000002,0.,-0.00059257,0.,0.00000008,0.00471638
 ,-0.00000009,-0.00000016,0.00426128,-0.00000004,0.,0.00343674,-0.00000
 073,-0.00000157,-0.03814600,-0.00000007,0.,0.01009858,0.,0.,0.00079744
 ,-0.00000001,0.,-0.00036232,0.,0.,0.00000093,0.,0.,-0.00000082,0.,0.,0
 .00000036,-0.00000002,0.,0.00000152,0.,-0.00000002,-0.00000039,0.,0.,0
 .00000172,0.,0.,-0.00000098,0.,0.00000002,-0.00000369,0.,0.,-0.0000005
 1,0.00000001,0.,0.00000535,0.00000001,-0.00000002,0.00000113,0.0000000
 4,0.00000002,-0.00130999,0.00000001,0.,0.00027941,0.,0.,0.00007745,0.,
 0.,-0.00016486,0.,-0.00000001,-0.00003599,-0.00000001,-0.00000002,-0.0
 0002397,-0.00000001,0.,0.00000205,0.,0.,-0.00001643,0.,0.,-0.00000048,
 -0.00000001,0.00000001,-0.00001637,0.,0.,-0.00001619,0.00000084,0.0000
 0163,0.02582819,0.00000746,-0.00000631,0.,-0.00000273,-0.00000830,0.,0
 .00000073,0.00000276,0.,-0.00007287,-0.00004670,0.,0.00001866,0.000015
 76,0.,0.00008677,-0.00001535,0.,-0.00002026,0.00020306,0.,-0.00001225,
 -0.00000347,0.,-0.00000380,0.00004671,0.,0.00000519,-0.00000004,0.,0.0
 0000460,0.00000018,0.,-0.00000499,0.00000137,0.,-0.00001440,0.00000441
 ,0.,-0.00000822,-0.00000056,0.00000002,-0.00018849,-0.00002787,0.00000
 002,-0.00000459,0.00000102,0.00000002,-0.00084914,-0.00000018,-0.00000
 002,-0.00000645,0.00000548,0.,0.00108971,-0.00215760,-0.00000002,-0.34
 276147,-0.02028855,-0.00000169,0.00123427,0.00230858,-0.00000004,0.000
 53857,-0.00004457,0.00000001,-0.01200497,-0.00303192,-0.00000010,-0.01
 041055,0.00103680,-0.00000009,0.00121826,0.00162329,0.00000002,-0.0010
 4053,0.00022820,0.00000003,0.00000992,-0.00000492,0.,-0.00000327,0.000
 00344,0.,0.00000682,0.00001477,0.,-0.00000859,-0.00001733,0.,0.0000029
 6,0.00000655,0.,-0.00000820,-0.00000867,0.,-0.00000697,-0.00000550,0.,
 -0.00000532,-0.00000258,0.00000002,-0.00000018,-0.00001105,0.,0.000013
 52,0.00001915,0.,0.00001672,0.00001317,0.,-0.00010658,-0.00051087,0.,0
 .00004766,0.00005377,0.,-0.00005296,-0.00007927,0.,-0.00006518,0.00008
 327,0.,0.00005686,-0.00002124,0.,0.00052218,0.00021442,0.,-0.00000136,
 -0.00001864,0.,0.00004276,-0.00000368,-0.00000002,-0.00001934,0.000005
 30,0.,-0.00002581,-0.00002533,0.00000004,-0.00002434,-0.00004705,0.,0.
 00089529,0.00009893,0.00000003,0.36190531,0.00001661,-0.00000431,0.,0.
 00001855,-0.00002403,0.,0.00000301,0.00001976,0.,0.00008905,0.00010203
 ,0.,-0.00001170,-0.00005065,0.,-0.00000488,-0.00015111,0.00000001,0.00
 025460,-0.00011912,0.,-0.00005724,0.00003760,0.,0.00004039,-0.00002885
 ,0.,0.00000926,-0.00000495,0.,-0.00002583,0.00000554,0.,-0.00001423,-0
 .00001605,0.,0.00002662,0.00001493,0.,0.00001769,0.00000998,-0.0000000
 2,-0.00012364,0.00028675,-0.00000002,-0.00000199,0.00000677,-0.0000000
 2,0.00138678,0.00007077,0.00000001,0.00000135,0.00000448,0.00000001,0.
 00056147,-0.00531928,0.00000001,-0.01965190,-0.05925764,-0.00000014,0.
 00081811,-0.00402349,-0.00000003,0.00030436,-0.00078828,0.,0.02774063,
 0.00643490,0.00000015,-0.03041355,0.00120475,-0.00000019,0.00065399,0.
 00362840,0.00000002,-0.00225059,-0.00040688,-0.00000004,0.00002222,-0.
 00000190,0.,-0.00000773,0.00000220,0.,0.00001113,0.00000964,0.,-0.0000
 0242,-0.00001336,0.,0.00000052,0.00000499,0.,-0.00001661,-0.00000386,0
 .,-0.00000677,0.00000152,0.,-0.00000033,-0.00000234,-0.00000002,-0.000
 00448,-0.00000838,0.,0.00000858,-0.00001375,0.,-0.00000060,0.00001563,
 0.,0.00046421,-0.00040813,0.,0.00018047,0.00002636,0.,-0.00006195,-0.0
 0004728,0.,-0.00001692,0.00012244,0.,-0.00001940,-0.00004222,0.,-0.000
 06054,0.00075281,0.,0.00000269,-0.00001364,0.,0.00006453,0.00002351,0.
 ,-0.00000298,0.00000397,0.,-0.00003935,-0.00003090,-0.00000002,0.00000
 461,-0.00002629,0.00000001,-0.00036340,0.00098794,0.00000002,0.0204174
 8,0.05709616,0.,0.,0.00000204,0.,-0.00000003,-0.00001643,0.,-0.0000000
 1,-0.00000047,0.,0.,-0.00016491,0.,0.,-0.00003598,0.,0.00000001,-0.000
 02439,0.00000002,0.00000001,-0.00131033,0.,0.,0.00027951,0.,0.00000002
 ,0.00007749,0.,0.,-0.00000050,0.,0.00000004,0.00000534,0.,0.,0.0000011
 3,0.,0.,-0.00001619,0.,-0.00000002,-0.00001634,0.,-0.00000002,-0.00036
 284,0.00000002,0.,-0.00000367,0.,0.,0.00079749,0.,0.,-0.00000098,0.,-0
 .00000002,0.00343913,-0.00000170,-0.00000014,-0.03817002,-0.00000005,-
 0.00000001,0.01009903,0.,0.,-0.00059529,-0.00000002,-0.00000004,0.0047
 3723,-0.00000015,0.,0.00427342,0.00000002,0.,-0.00241937,-0.00000003,0
 .,-0.00013966,0.,0.,0.00000151,-0.00000001,0.,-0.00000039,0.,0.,0.0000
 0173,-0.00000002,0.,0.00000094,0.,-0.00000002,-0.00000082,0.,0.0000000
 1,0.00000034,0.,0.,-0.00000279,0.00000001,0.00000002,-0.00000320,0.,0.
 ,0.00000037,0.00000001,0.,0.00000511,0.00000001,-0.00000002,0.00000110
 ,0.00000003,0.00000002,-0.00039856,0.00000002,0.,0.00007445,0.,0.,0.00
 000294,0.,0.,0.00009921,0.,0.,0.00001912,0.,-0.00000002,0.00000160,-0.
 00000001,0.,0.00000199,0.,0.,0.00000074,0.,0.,-0.00000229,-0.00000002,
 0.00000002,-0.00000476,0.,0.,-0.00001378,0.00000004,0.00000003,-0.0060
 5317,0.00000186,0.00000017,0.02583086,-0.00003505,0.00004275,0.,-0.000
 08307,0.00010268,0.,0.00003987,-0.00015407,0.,-0.11288891,-0.11320428,
 -0.00000038,-0.00406767,0.00223768,0.,-0.00302263,0.00181824,-0.000000
 01,0.01101085,0.01802941,0.00000006,-0.00057164,0.00033119,0.,-0.00886
 706,-0.02951673,-0.00000008,-0.00006022,-0.00000778,0.,-0.00029229,-0.
 00009728,0.,0.00005126,0.00002034,0.,-0.00075996,-0.00143782,0.,0.0002
 3368,-0.00012006,0.00000002,0.00031030,0.00147041,0.00000003,-0.000001
 96,-0.00002124,0.00000002,0.00204709,-0.00112169,0.,-0.00000582,-0.000
 03156,0.,-0.00006963,-0.00011266,-0.00000001,0.00001251,0.00002432,0.,
 -0.00031201,-0.00034503,0.,0.00062919,-0.00000039,0.,0.00004637,-0.000
 04764,0.,0.00000012,0.00005206,0.,-0.00000743,-0.00001437,0.,-0.000001
 66,0.00002559,0.00000002,-0.00002312,-0.00000673,0.,0.00001250,-0.0000
 0981,0.,-0.00000580,-0.00000896,0.,-0.00000771,0.00001576,0.,-0.000006
 43,-0.00000255,0.,0.00001635,0.00001901,0.,-0.00000121,-0.00000434,0.,
 0.00000437,-0.00000317,0.00000002,0.00000268,0.00000428,0.,-0.00000228
 ,-0.00000586,0.,-0.00000642,-0.00001278,0.,-0.00001899,0.00001015,0.,0
 .00001047,0.00000424,0.,0.00000039,0.00000415,0.,-0.00000286,-0.000006
 54,0.,-0.00000366,-0.00000138,0.,0.00000195,-0.00004098,0.,0.00000598,
 0.00000837,0.,-0.00000359,-0.00000043,0.,0.00000142,0.00000036,0.,-0.0
 0000183,-0.00000167,0.00000002,0.00000471,0.00000004,0.,-0.00005206,0.
 00001585,0.,0.00000279,-0.00000785,0.,0.11565843,0.00001528,0.00000304
 ,0.,0.00011331,0.00001823,0.,-0.00001848,-0.00001076,0.,-0.11253017,-0
 .28927607,-0.00000080,0.00074307,0.00126923,-0.00000004,0.00453622,-0.
 00119118,0.,-0.01341376,-0.02023091,-0.00000009,0.00067865,0.00031162,
 0.,0.00123405,0.00332204,-0.00000001,-0.00001411,0.00002766,0.,-0.0000
 4604,0.00015324,0.,-0.00003341,-0.00002613,0.,-0.00005123,-0.00001822,
 0.,-0.00021558,-0.00013522,0.,-0.00100593,-0.00175837,-0.00000002,-0.0
 0000291,0.00000383,0.,-0.00210737,0.00281526,0.00000002,-0.00000932,0.
 00000637,0.00000001,0.00001373,0.00014365,0.,0.00004151,-0.00011285,0.
 ,0.00062888,-0.00020368,0.,-0.00027759,0.00064718,0.,-0.00014771,0.000
 01067,0.,0.00005392,0.00001471,0.,0.00003734,-0.00004327,0.00000001,0.
 00001160,-0.00005532,0.,0.00002011,-0.00000360,0.,-0.00000963,0.000007
 99,0.,0.00001402,0.00000891,0.,0.00000021,-0.00001338,0.,0.00000674,0.
 00000667,0.,-0.00000709,-0.00000625,0.,-0.00000847,-0.00000070,0.,-0.0
 0000620,-0.00000219,0.,-0.00000688,-0.00000378,0.,-0.00000952,0.000018
 75,0.,0.00001438,0.00001444,0.,-0.00000046,0.00001877,0.,-0.00000953,0
 .00002196,0.,0.00001069,-0.00000894,0.,-0.00001480,-0.00001253,0.,0.00
 001998,-0.00001138,0.,0.00002716,0.00006423,0.,0.00000037,-0.00001813,
 0.,0.00001452,-0.00001828,0.,-0.00000569,0.00000649,0.,0.00000052,-0.0
 0000575,0.,-0.00000122,-0.00001015,0.,0.00005468,0.00000701,0.,0.00000
 557,-0.00000297,0.,0.12186471,0.30346005,0.,0.,-0.00003600,0.,-0.00000
 002,-0.00002392,0.,-0.00000001,-0.00016478,-0.00000045,-0.00000081,-0.
 03815460,0.,-0.00000004,0.01010069,0.00000001,0.,0.00343613,0.,-0.0000
 0010,0.00425868,-0.00000002,0.00000002,-0.00059259,0.00000007,0.000000
 05,0.00472311,0.,0.,0.00007747,-0.00000001,0.00000003,-0.00131007,0.,0
 .,0.00027946,0.,0.,0.00079690,0.,-0.00000002,-0.00036307,0.,-0.0000000
 3,-0.00013989,0.00000002,0.,-0.00001635,0.,0.00000002,-0.00240933,0.,0
 .,-0.00001617,0.,0.,0.00007438,0.,0.,0.00000284,0.,0.,-0.00039852,0.,0
 .,-0.00000013,0.,-0.00000002,0.00009909,0.,0.,0.00001897,0.,-0.0000000
 1,-0.00001376,-0.00000002,0.,-0.00000482,0.,0.,-0.00001644,0.,0.,-0.00
 000048,0.,0.,0.00000205,-0.00000002,0.,0.00000113,0.,-0.00000002,-0.00
 000051,0.,0.00000001,0.00000534,0.,0.,-0.00000098,0.,0.00000002,-0.000
 00370,0.,0.,-0.00000039,0.,0.,0.00000173,0.00000001,-0.00000002,0.0000
 0153,0.00000003,0.00000002,0.00000508,0.00000001,0.,0.00000110,0.,0.,0
 .00000037,0.,0.,-0.00000229,0.,0.,0.00000199,-0.00000001,-0.00000002,0
 .00000076,-0.00000001,0.,0.00000035,0.,0.,0.00000093,0.,0.,-0.00000082
 ,-0.00000001,0.00000001,-0.00000321,0.,0.,-0.00000278,0.,0.,-0.0000026
 3,0.,0.,-0.00000960,0.00000038,0.00000090,0.02583696,0.00001860,-0.000
 05135,0.,0.00058160,-0.00001029,0.,0.00001269,0.00004811,0.,-0.0132912
 5,0.02661428,0.00000008,0.01087765,-0.01259348,-0.00000004,-0.00036858
 ,-0.00045456,0.,-0.00339564,-0.00305742,0.,-0.00189225,-0.00193526,0.0
 0000002,-0.15655038,0.13639975,0.00000038,0.00001987,-0.00000113,0.,-0
 .00026112,0.00033532,0.,-0.00008026,0.00007362,0.00000001,0.00150890,0
 .00089818,0.,0.00032704,-0.00110608,-0.00000006,0.00016569,0.00017255,
 -0.00000004,0.00000304,-0.00001525,-0.00000005,-0.00099122,0.00126814,
 0.00000003,-0.00000462,0.00002110,0.00000002,0.00004685,-0.00000769,0.
 ,-0.00006139,-0.00000784,0.,-0.00030349,0.00001736,0.,-0.00004304,-0.0
 0011353,0.00000001,0.00000919,0.00015763,0.,-0.00002402,-0.00004748,0.
 ,-0.00001245,0.00002823,0.00000002,-0.00000593,0.00001958,-0.00000003,
 0.00000152,0.00002998,0.00000002,-0.00000680,0.00000754,0.,-0.00000071
 ,0.00000329,0.,0.00000989,-0.00000635,0.,0.00000264,-0.00000211,0.,-0.
 00001617,-0.00001628,0.,0.00000403,0.00000244,0.00000002,-0.00000214,0
 .00000234,-0.00000004,0.00000066,-0.00000139,0.,0.00000678,-0.00000403
 ,0.,-0.00000162,0.00000338,0.00000001,0.00001778,-0.00001476,0.,-0.000
 00519,-0.00001432,0.00000001,-0.00000528,0.00000046,0.,0.00000906,0.00
 000997,0.,-0.00000450,0.00000657,0.,-0.00002027,0.00000386,0.00000001,
 -0.00000423,0.00000184,0.,-0.00000554,0.00000926,0.,0.00000205,-0.0000
 0325,0.,0.00000257,0.00000398,-0.00000003,-0.00000339,0.00000390,0.000
 00002,0.00000053,-0.00000978,0.,-0.00000889,0.00001662,0.00000001,0.00
 108679,-0.00020680,0.,0.16269217,-0.00005334,-0.00000399,0.,0.00026409
 ,0.00069382,-0.00000002,0.00014830,0.00004495,0.00000001,-0.00413211,0
 .00775209,0.00000003,0.01885836,-0.02010313,-0.00000009,-0.00080419,0.
 00011987,0.,-0.00156438,0.00060604,-0.00000002,-0.00465576,-0.00233085
 ,-0.00000001,0.13572972,-0.24559609,-0.00000052,-0.00001829,-0.0001201
 7,0.00000001,-0.00064058,-0.00025367,0.,-0.00005326,0.00015424,-0.0000
 0001,0.00187465,0.00333206,-0.00000001,0.00137240,-0.00177644,0.000000
 05,0.00026797,-0.00006712,0.00000005,-0.00000122,-0.00005979,0.0000000
 7,-0.00011821,0.00021201,-0.00000002,-0.00003046,-0.00004596,-0.000000
 02,0.00004607,-0.00002158,0.,-0.00000149,0.00002876,0.00000001,-0.0000
 3419,0.00016434,0.,-0.00012406,-0.00002138,-0.00000002,0.00002198,0.00
 002000,0.00000001,-0.00002005,-0.00000791,0.,0.00000607,0.00001298,-0.
 00000002,0.00000133,0.00000773,0.00000005,-0.00003815,0.00006485,-0.00
 000002,0.00001581,-0.00000861,0.00000001,-0.00001807,-0.00001434,0.,0.
 00000746,0.00002243,-0.00000001,-0.00000871,-0.00001117,0.00000001,-0.
 00000580,0.00001597,0.,0.00000373,-0.00000944,-0.00000002,0.00000008,-
 0.00000554,0.00000006,0.00000466,0.00000725,0.00000001,0.00000392,-0.0
 0001886,0.,-0.00001155,-0.00002027,-0.00000002,0.00001118,-0.00000769,
 0.,0.00000126,-0.00001589,-0.00000001,-0.00000884,0.00000556,0.0000000
 1,0.00000976,0.00001141,0.00000001,-0.00001633,0.00000766,0.,-0.000022
 97,-0.00000648,-0.00000002,0.00000543,0.00002068,0.,-0.00001786,0.0000
 1356,-0.00000001,0.00000788,-0.00000313,0.,0.00000698,-0.00000033,0.00
 000005,0.00000802,0.00000144,-0.00000002,0.00000368,-0.00000070,-0.000
 00002,-0.00000261,0.00000284,-0.00000002,0.00025478,0.00080302,0.,-0.1
 4646578,0.25641940,-0.00000002,0.,0.00001912,0.,-0.00000002,0.00000157
 ,0.,-0.00000001,0.00009921,-0.00000003,-0.00000002,0.00472428,0.,-0.00
 000007,0.00427524,0.,0.00000002,-0.00059465,0.00000003,-0.00000002,0.0
 1009736,0.,0.,0.00343912,0.00000039,-0.00000049,-0.03817374,0.,0.,0.00
 000297,0.,0.00000004,-0.00039840,0.,0.,0.00007448,0.,0.,-0.00241574,0.
 ,-0.00000003,-0.00013974,0.,-0.00000002,-0.00036348,0.00000002,0.,-0.0
 0000476,0.,-0.00000002,0.00079714,0.00000001,0.,-0.00001377,0.,0.00000
 001,0.00027951,0.,0.,0.00007750,0.,0.00000003,-0.00131035,0.,-0.000000
 01,-0.00002417,0.,-0.00000002,-0.00016492,0.,0.,-0.00003595,0.,0.,-0.0
 0001622,-0.00000002,0.,-0.00001636,0.,0.,0.00000073,0.,0.,-0.00000229,
 0.,-0.00000001,0.00000199,-0.00000002,0.,0.00000109,0.,-0.00000001,0.0
 0000037,-0.00000002,0.00000001,0.00000511,0.,0.,-0.00000279,0.00000002
 ,0.00000002,-0.00000320,0.,0.,-0.00000081,0.,0.,0.00000036,0.00000001,
 -0.00000002,0.00000094,0.00000003,0.00000002,0.00000534,0.00000002,0.,
 0.00000113,0.,0.,-0.00000051,0.,0.,-0.00000047,0.,0.,0.00000205,0.,-0.
 00000002,-0.00001642,-0.00000001,0.,0.00000173,0.,-0.00000001,0.000001
 51,0.,0.,-0.00000039,-0.00000001,0.00000002,-0.00000368,0.,0.,-0.00000
 099,0.,0.,-0.00000960,0.,0.,0.00002309,0.,0.00000003,-0.00605474,-0.00
 000041,0.00000059,0.02584532,-0.00135815,-0.00230398,0.00000005,-0.004
 39733,-0.00374267,0.,-0.14731235,0.13238845,0.00000067,-0.00011027,0.0
 0002914,0.,-0.00035667,-0.00060488,0.,0.00013334,-0.00013119,-0.000000
 02,-0.00003473,-0.00003377,0.,0.00076262,0.00019915,0.,0.00010466,0.00
 011468,0.,0.01252299,-0.01357357,-0.00000005,-0.01444998,0.02812129,0.
 00000014,-0.00034317,-0.00081235,-0.00000001,0.00402094,0.00096033,-0.
 00000004,-0.00144195,0.00202026,0.00000004,-0.00005794,0.00002092,0.00
 000003,0.00010263,0.00029083,0.00000003,-0.00004427,-0.00001608,-0.000
 00002,0.00044104,-0.00064236,-0.00000002,0.00002136,0.00000324,-0.0000
 0002,-0.00001304,-0.00000296,0.,0.00000513,-0.00001347,0.,0.00005467,-
 0.00005755,-0.00000001,-0.00000084,0.00001367,0.,-0.00001742,-0.000011
 99,0.,-0.00000596,0.00000735,-0.00000002,-0.00000443,0.00000089,0.0000
 0003,-0.00010038,-0.00010316,0.,0.00007665,-0.00000277,0.,-0.00003156,
 -0.00001724,0.,-0.00000108,0.00006358,-0.00000001,0.00001505,-0.000029
 36,0.,0.00010358,-0.00018255,0.,0.00002099,-0.00000616,-0.00000001,0.0
 0001280,-0.00000554,0.00000003,0.00001750,0.00000670,0.,0.00000310,-0.
 00001912,0.,-0.00001422,-0.00002517,-0.00000002,0.00002019,-0.00000340
 ,0.,0.00000851,-0.00002299,-0.00000001,-0.00000100,0.00000901,0.,0.000
 00753,0.00000214,0.,-0.00001589,0.00001217,0.,-0.00002069,-0.00000461,
 -0.00000001,-0.00000575,0.00001982,0.,-0.00001889,0.00000621,0.,0.0000
 0159,-0.00001133,0.,0.00000353,0.00000666,0.00000003,0.00000470,0.0000
 0508,-0.00000002,-0.00000412,-0.00000189,0.,-0.00000007,0.00000168,0.,
 -0.00000051,-0.00000363,0.,-0.00003863,-0.00006237,0.,0.15088195,-0.00
 379727,-0.00144580,0.,-0.00102640,0.00018878,-0.00000001,0.13306258,-0
 .25466689,-0.00000091,0.00004633,0.00000966,0.,0.00037034,-0.00016124,
 0.,-0.00000437,-0.00005920,0.,-0.00003190,0.00004965,0.,-0.00007628,0.
 00051355,-0.00000001,0.00001437,-0.00004696,0.,0.01717105,-0.01806521,
 -0.00000011,-0.00333525,0.00519579,0.,-0.00046700,0.00009428,0.,-0.000
 01130,0.00083027,0.,-0.00046002,-0.00000687,0.00000003,0.00000700,0.00
 000099,0.00000002,0.00019549,-0.00000340,0.00000002,0.00003564,-0.0000
 0642,0.,0.00074441,-0.00121913,0.,-0.00001052,0.00001104,0.,0.00000360
 ,0.00000449,0.,-0.00002403,-0.00000534,0.,0.00001052,0.00001151,-0.000
 00001,0.00000536,-0.00001453,0.,0.00000928,0.00000248,0.,0.00000615,0.
 00000049,0.,0.00000318,-0.00000331,0.00000002,-0.00009253,0.00003602,-
 0.00000001,0.00013289,-0.00004741,0.,-0.00004474,-0.00000042,0.,0.0000
 0985,0.00002633,0.,-0.00003578,-0.00004777,0.,-0.00013123,-0.00024344,
 0.,0.00001606,-0.00002046,0.,0.00001277,-0.00001104,0.00000002,0.00000
 691,0.00000297,0.,0.00000380,0.00000010,0.,0.00000162,-0.00001250,0.,-
 0.00000715,-0.00000372,0.,0.00000418,-0.00000053,0.,-0.00000216,-0.000
 00005,0.,-0.00000388,0.00000038,0.,0.00000422,0.00000381,0.,0.00001030
 ,-0.00000117,0.,-0.00000624,0.00001587,0.,-0.00000929,-0.00000219,0.,-
 0.00000207,-0.00000134,0.,0.00000365,-0.00000132,0.00000002,0.00000095
 ,-0.00000665,0.,0.00000079,0.00000217,0.,0.00000120,-0.00000132,0.,0.0
 0000973,0.00000036,0.,-0.00002497,-0.00000688,0.,-0.14218406,0.2680906
 3,0.00000004,-0.00000001,0.01010216,0.00000004,0.,0.00343601,0.0000006
 5,-0.00000094,-0.03816438,-0.00000001,0.,0.00000298,0.,0.,-0.00039851,
 0.,0.,0.00007424,0.00000001,0.,0.00001898,0.,0.,0.00000058,0.,0.000000
 01,0.00009888,0.,0.00000004,0.00473072,0.00000009,-0.00000008,0.004278
 04,-0.00000001,0.,-0.00059347,-0.00000003,0.,-0.00240575,0.,-0.0000000
 3,-0.00013949,0.,-0.00000002,-0.00000482,0.00000001,0.,-0.00036369,0.,
 0.,-0.00001377,0.,0.,0.00079752,0.,0.,0.00000110,0.,0.,0.00000036,-0.0
 0000001,0.00000001,0.00000509,0.,0.,0.00000075,0.,-0.00000002,-0.00000
 229,-0.00000001,0.,0.00000199,0.,0.,-0.00000277,-0.00000001,0.,-0.0000
 0321,0.,0.,-0.00002413,0.,0.,-0.00016483,0.,0.,-0.00003599,-0.00000002
 ,0.,0.00027967,0.,-0.00000002,0.00007747,-0.00000001,0.,-0.00130976,0.
 ,0.,-0.00001621,0.00000001,0.00000002,-0.00001638,0.,0.,-0.00000047,0.
 ,0.,0.00000205,0.,-0.00000002,-0.00001643,0.00000002,0.00000001,0.0000
 0172,0.00000001,0.,0.00000153,0.,0.,-0.00000039,0.,0.,-0.00000081,0.,0
 .,0.00000035,-0.00000001,-0.00000002,0.00000094,-0.00000001,0.,0.00000
 534,0.,0.,0.00000112,0.,0.,-0.00000052,-0.00000001,0.,-0.00000370,0.,0
 .,-0.00000098,0.,0.,-0.00000079,0.,0.,0.00000080,0.,0.,-0.00000962,0.,
 -0.00000001,-0.00000259,-0.00000076,0.00000099,0.02579707,-0.01509251,
 -0.00387054,0.00000009,0.00054349,0.00027624,0.,-0.00723160,0.00063922
 ,0.00000004,0.00001017,-0.00003987,0.,0.00005409,-0.00017270,0.,-0.000
 02114,-0.00000690,0.,0.00001726,-0.00000389,0.,0.00007602,0.00005519,0
 .00000001,-0.00006040,0.00001822,0.,-0.34111762,-0.02911850,0.00000120
 ,0.00158908,-0.00132680,0.00000004,0.00064548,0.00319344,0.00000001,-0
 .00058584,-0.00011458,0.00000001,-0.00019927,-0.00005677,-0.00000004,-
 0.00000472,-0.00000192,-0.00000003,-0.00136395,-0.00039601,-0.00000002
 ,-0.00000826,-0.00000840,0.00000001,0.00168099,-0.00197114,-0.00000001
 ,-0.00000755,0.00000017,0.,0.00000647,0.00000201,0.,0.00000028,-0.0000
 0121,0.,-0.00000162,0.00001219,0.,0.00000226,-0.00000583,0.,0.00000882
 ,0.00000864,0.,-0.00000491,-0.00000710,0.00000001,-0.00000440,-0.00000
 299,-0.00000003,0.00055609,-0.00025060,0.,-0.00004793,-0.00011344,0.,0
 .00004727,0.00003668,0.,0.00008688,-0.00004342,0.,-0.00007686,0.000074
 26,0.,-0.00012622,0.00056378,0.,-0.00003164,0.00004617,0.,-0.00003709,
 0.00002455,-0.00000003,-0.00001827,-0.00000917,0.,-0.00000447,0.000020
 23,0.,0.00005244,0.00000866,0.,-0.00001243,0.00000713,0.,-0.00001201,0
 .00001757,0.,0.00000417,-0.00000669,0.,-0.00000383,-0.00000450,0.,0.00
 001131,-0.00001450,0.,0.00001247,0.00000747,0.00000001,0.00001747,-0.0
 0001370,0.,0.00001890,-0.00001261,0.,-0.00000304,0.00001195,0.,-0.0000
 0570,0.00000199,-0.00000003,-0.00000877,0.00000372,0.00000001,0.000000
 40,-0.00000088,0.,-0.00000168,-0.00000021,0.00000001,-0.00000614,0.000
 00106,0.,0.00000223,-0.00000460,0.,0.00085048,-0.00012057,-0.00000002,
 0.35978934,0.02759261,0.00584001,-0.00000012,-0.00007068,-0.00079307,0
 .,-0.03010352,0.00170228,0.00000012,-0.00003353,-0.00004281,0.,-0.0002
 2417,-0.00019356,0.,0.00004682,0.00004634,0.,0.00002362,-0.00004925,0.
 ,0.00004464,-0.00014074,0.,-0.00011737,0.00008958,0.,-0.02980081,-0.06
 083368,0.00000010,0.00016549,-0.00439771,-0.00000003,0.00047977,-0.004
 85637,0.,-0.00150124,-0.00019188,0.00000002,0.00003853,0.00029828,-0.0
 0000002,-0.00002026,0.00000652,-0.00000002,0.00208321,-0.00008296,-0.0
 0000004,-0.00003064,0.00000879,0.00000001,-0.00099806,0.00317142,0.000
 00001,0.00001569,-0.00001352,0.,-0.00000726,-0.00000621,0.,0.00002487,
 0.00000983,0.,-0.00001461,-0.00002510,0.,-0.00000604,0.00001820,0.,-0.
 00001429,-0.00000568,0.,-0.00000300,0.00000298,0.00000001,0.00000003,0
 .00000662,-0.00000002,0.00002598,0.00072117,0.,-0.00001322,0.00010572,
 0.,0.00003470,-0.00003226,0.,-0.00017023,-0.00001255,0.,0.00005721,-0.
 00002378,0.,-0.00041293,-0.00039258,0.,-0.00000547,-0.00001907,0.00000
 001,0.00003857,-0.00002004,-0.00000002,-0.00000090,0.00000287,0.,-0.00
 000107,-0.00001054,0.,-0.00005946,0.00001377,0.,0.00001512,0.00000029,
 0.,0.00000266,-0.00000985,0.,-0.00000065,0.00000373,0.,0.00000665,0.00
 000276,0.,-0.00001082,0.00000516,0.,-0.00001969,-0.00000447,0.,-0.0000
 0323,-0.00001767,0.,0.00000117,0.00001353,0.,0.00000539,-0.00000549,0.
 ,-0.00000025,-0.00000196,-0.00000002,0.00000495,0.00000334,0.00000001,
 -0.00000138,-0.00000177,0.,-0.00000038,0.00000169,0.,-0.00001818,0.000
 00012,0.,0.00000879,-0.00000238,0.,0.00033127,0.00103346,0.00000001,0.
 03263108,0.05914446,0.00000012,0.,0.00428754,0.,-0.00000001,-0.0005937
 5,-0.00000001,-0.00000004,0.00472940,-0.00000001,0.,0.00007748,0.,0.,-
 0.00130986,0.,0.00000001,0.00027955,0.00000001,0.,-0.00003600,0.,0.,-0
 .00002398,0.,0.00000001,-0.00016480,0.00000121,0.00000013,-0.03815333,
 0.00000004,0.00000002,0.01010120,0.00000001,-0.00000002,0.00343633,0.,
 -0.00000001,0.00079779,0.,-0.00000002,-0.00036321,0.,-0.00000002,-0.00
 001633,0.00000003,0.,-0.00013947,0.,0.,-0.00001621,-0.00000002,0.00000
 001,-0.00240425,0.00000001,0.,0.00000112,0.,0.,-0.00000051,-0.00000001
 ,0.00000001,0.00000535,0.,0.,-0.00001645,0.,-0.00000002,-0.00000047,0.
 ,0.,0.00000206,0.,-0.00000001,-0.00000099,-0.00000002,0.,-0.00000367,0
 .,0.,0.00000011,0.,0.,0.00009886,0.,-0.00000002,0.00001898,-0.00000002
 ,0.,0.00007425,0.,-0.00000002,0.00000300,-0.00000001,0.,-0.00039828,0.
 ,0.,-0.00001379,0.00000001,0.00000002,-0.00000480,0.,0.,-0.00000229,0.
 ,0.,0.00000199,0.00000001,-0.00000002,0.00000074,0.00000002,0.00000002
 ,0.00000035,0.00000002,0.,0.00000094,0.,0.,-0.00000082,0.,0.,-0.000000
 38,0.,-0.00000001,0.00000173,0.,-0.00000002,0.00000151,-0.00000002,0.,
 0.00000510,0.,0.,0.00000108,0.,0.,0.00000037,-0.00000001,0.00000002,-0
 .00000318,0.,0.,-0.00000280,0.,0.,0.00000080,0.,0.,0.00000027,0.,0.,0.
 00002308,0.,-0.00000002,-0.00000956,-0.00000003,0.,-0.00603728,-0.0000
 0133,-0.00000008,0.02577680,-0.00010661,-0.00051088,0.,0.00004760,0.00
 005382,0.,-0.00005296,-0.00007927,-0.00000001,-0.00000018,-0.00001104,
 0.,0.00001349,0.00001916,0.,0.00001675,0.00001319,0.,-0.00000137,-0.00
 001864,0.,0.00004274,-0.00000362,0.00000001,-0.00001933,0.00000528,0.,
 -0.00006519,0.00008328,0.,0.00005687,-0.00002122,0.,0.00052218,0.00021
 440,0.,-0.00002433,-0.00004707,0.00000001,-0.00002577,-0.00002538,-0.0
 0000004,-0.00000534,-0.00000262,-0.00000003,-0.00104050,0.00022820,-0.
 00000003,-0.00000695,-0.00000553,0.00000002,0.00121828,0.00162326,0.,0
 .00000989,-0.00000497,0.,-0.00000327,0.00000345,0.,0.00000680,0.000014
 79,0.,-0.00000853,-0.00001730,0.,0.00000294,0.00000655,0.,-0.00000820,
 -0.00000865,0.,-0.00000643,0.00000547,0.00000002,-0.00000457,0.0000010
 3,-0.00000003,0.00108968,-0.00215764,0.00000002,-0.34276146,-0.0202885
 4,0.00000130,0.00123428,0.00230857,0.00000002,0.00053863,-0.00004454,0
 .,-0.01200500,-0.00303190,0.00000008,-0.01041056,0.00103681,0.00000007
 ,-0.00084912,-0.00000019,0.00000003,-0.00018851,-0.00002789,-0.0000000
 2,-0.00007287,-0.00004669,0.,0.00001864,0.00001576,0.,0.00008682,-0.00
 001534,0.,0.00000744,-0.00000632,0.,-0.00000277,-0.00000824,0.,0.00000
 073,0.00000277,0.,0.00000518,-0.00000004,0.,0.00000461,0.00000020,0.,-
 0.00000499,0.00000133,0.,-0.00002026,0.00020306,-0.00000001,-0.0000122
 8,-0.00000342,0.,-0.00000382,0.00004673,0.,-0.00000820,-0.00000060,-0.
 00000003,-0.00001439,0.00000439,0.00000002,-0.00000080,-0.00000163,0.0
 0000001,-0.00000100,0.00000081,0.00000001,-0.00000225,0.00000009,0.000
 00001,0.00000106,-0.00000375,0.00000001,-0.00000255,-0.00000862,0.,0.0
 0002298,-0.00001103,0.00000001,0.36190531,0.00046421,-0.00040814,0.,0.
 00018047,0.00002636,-0.00000001,-0.00006195,-0.00004728,0.,-0.00000449
 ,-0.00000837,0.,0.00000856,-0.00001374,0.,-0.00000060,0.00001562,-0.00
 000001,0.00000270,-0.00001364,0.,0.00006454,0.00002350,0.,-0.00000298,
 0.00000396,0.,-0.00001692,0.00012243,0.,-0.00001940,-0.00004221,0.,-0.
 00006053,0.00075281,0.,0.00000462,-0.00002629,-0.00000001,-0.00003935,
 -0.00003090,0.00000003,-0.00000033,-0.00000234,0.00000003,-0.00225060,
 -0.00040689,0.00000004,-0.00000677,0.00000151,-0.00000001,0.00065400,0
 .00362841,-0.00000003,0.00002221,-0.00000191,-0.00000001,-0.00000773,0
 .00000220,0.,0.00001113,0.00000965,0.,-0.00000242,-0.00001336,-0.00000
 001,0.00000052,0.00000500,0.,-0.00001661,-0.00000386,0.,0.00000135,0.0
 0000448,-0.00000001,-0.00000199,0.00000677,0.00000003,0.00056148,-0.00
 531927,0.,-0.01965191,-0.05925760,0.00000015,0.00081809,-0.00402347,0.
 00000006,0.00030437,-0.00078828,0.,0.02774064,0.00643489,-0.00000012,-
 0.03041355,0.00120473,0.00000016,0.00138678,0.00007076,-0.00000001,-0.
 00012364,0.00028674,0.00000002,0.00008906,0.00010204,0.,-0.00001172,-0
 .00005065,0.,-0.00000488,-0.00015111,-0.00000001,0.00001660,-0.0000043
 1,0.,0.00001855,-0.00002402,-0.00000001,0.00000301,0.00001976,0.,0.000
 00926,-0.00000495,0.,-0.00002584,0.00000555,0.,-0.00001423,-0.00001605
 ,0.,0.00025461,-0.00011911,0.,-0.00005724,0.00003760,0.,0.00004038,-0.
 00002884,0.,0.00001769,0.00000998,0.00000002,0.00002662,0.00001492,-0.
 00000001,-0.00000095,0.00000014,0.,0.00000081,0.00000040,0.,-0.0000004
 2,0.00000087,0.,-0.00000112,-0.00000302,0.,0.00000480,0.00000238,0.,0.
 00002674,-0.00006819,0.,0.02041747,0.05709615,0.,0.,-0.00039856,0.,-0.
 00000002,0.00007444,0.,-0.00000001,0.00000295,0.,0.,0.00000037,0.,0.,0
 .00000510,0.,0.00000001,0.00000112,0.,0.,0.00000199,-0.00000001,0.,0.0
 0000074,0.,0.00000001,-0.00000229,0.,0.,0.00009921,0.,0.00000003,0.000
 01911,0.,-0.00000001,0.00000162,0.,0.,-0.00001376,0.,-0.00000002,-0.00
 000476,0.,-0.00000002,-0.00000322,0.00000003,0.00000001,-0.00013969,0.
 ,0.,-0.00000279,-0.00000002,-0.00000003,-0.00241934,0.,0.,0.00000153,0
 .,0.,-0.00000039,-0.00000001,0.,0.00000173,0.,0.,0.00000095,0.,-0.0000
 0001,-0.00000082,-0.00000002,0.,0.00000036,0.,-0.00000001,-0.00000098,
 0.,0.,-0.00000369,0.,0.00000003,0.00343910,0.00000130,0.00000015,-0.03
 817003,0.00000003,0.00000005,0.01009905,-0.00000002,0.,-0.00059528,-0.
 00000004,0.,0.00473724,0.00000018,0.00000004,0.00427340,0.,0.,0.000797
 50,0.,0.00000001,-0.00036285,0.,-0.00000001,-0.00016492,0.,0.,-0.00003
 597,0.00000001,-0.00000001,-0.00002440,0.00000001,0.00000001,0.0000020
 5,0.,0.,-0.00001641,0.,0.,-0.00000048,0.,0.,-0.00000051,0.,0.,0.000005
 35,-0.00000001,-0.00000002,0.00000112,-0.00000001,0.,-0.00131034,0.,0.
 ,0.00027953,0.,0.,0.00007747,0.,0.,-0.00001637,0.,0.,-0.00001620,0.,0.
 ,0.00000051,0.,0.,0.00000045,0.,0.,0.00000080,0.,-0.00000002,-0.000000
 79,0.,0.,-0.00000955,0.,0.,-0.00000266,-0.00000143,-0.00000021,0.02583
 087,0.00004029,0.00023222,0.,0.00001216,-0.00006607,0.,0.00000225,0.00
 003815,0.,-0.00000077,0.00001144,0.,-0.00000282,-0.00002311,0.,-0.0000
 1889,-0.00000915,0.,0.00000038,0.00001917,0.,-0.00001821,0.00002419,0.
 ,0.00001940,-0.00000384,0.,0.00009504,0.00002765,0.,-0.00004117,0.0000
 1010,0.,-0.00012982,0.00007412,0.,0.00002147,0.00001351,0.,0.00001331,
 0.00000988,-0.00000002,0.00000510,-0.00000557,-0.00000002,0.00018174,-
 0.00025895,-0.00000002,0.00000539,-0.00000295,0.00000001,0.00040951,0.
 00092670,0.,-0.00001915,0.00000147,0.,0.00000704,-0.00000099,0.,-0.000
 01251,-0.00001506,0.,0.00000506,0.00002398,0.,0.00000016,-0.00000897,0
 .,0.00001766,0.00000716,0.,-0.00000344,-0.00000805,0.,-0.00000359,-0.0
 0000094,-0.00000002,-0.00055158,0.00069697,0.,0.01222217,0.01887912,-0
 .00000013,-0.00962226,-0.03069031,0.00000023,-0.00507562,0.00281860,0.
 00000001,-0.10558783,-0.10641790,0.00000084,-0.00239545,0.00214224,0.0
 0000005,0.00408698,-0.00039922,-0.00000001,-0.00113567,-0.00221525,0.,
 0.00012169,-0.00008506,0.,-0.00004352,0.00001746,0.,0.00077711,-0.0001
 5366,0.,-0.00001735,0.00000853,0.,0.00004536,0.00006349,0.,0.00000195,
 -0.00001078,0.,-0.00001241,0.,0.,-0.00000154,0.00001415,0.,0.00001984,
 -0.00000169,0.,-0.00038871,0.00056747,0.,0.00010431,0.00015975,0.,-0.0
 0009369,-0.00004727,0.,-0.00005133,-0.00003011,-0.00000002,-0.00003978
 ,0.00001024,0.,0.00000077,0.00000017,0.,-0.00000080,-0.00000095,0.,0.0
 0000110,-0.00000122,0.,-0.00000026,0.00000177,0.,0.00000597,0.00001119
 ,0.,-0.00000301,-0.00000571,0.,0.00089529,-0.00036340,-0.00000003,0.10
 620796,0.00018101,-0.00017927,0.,-0.00001237,0.00001301,0.00000003,0.0
 0004447,-0.00003483,-0.00000002,0.00000218,0.00000102,-0.00000001,0.00
 000299,0.00001293,0.,0.00000638,-0.00000217,0.00000002,-0.00000379,0.0
 0000274,0.,-0.00000262,-0.00000853,0.00000003,-0.00000404,0.00000106,-
 0.00000002,-0.00010801,-0.00006585,-0.00000002,0.00003760,0.00000916,0
 .,0.00006369,0.00006481,0.00000002,-0.00000875,-0.00002091,0.00000003,
 -0.00000847,-0.00001146,-0.00000008,-0.00000253,-0.00000294,-0.0000000
 8,-0.00016347,-0.00008323,-0.00000008,0.00000118,-0.00000731,0.0000000
 3,-0.00046031,-0.00118707,0.00000003,-0.00001345,-0.00000274,0.0000000
 3,0.00000506,0.00000089,-0.00000001,-0.00000709,0.00000039,0.,-0.00000
 319,0.00000295,0.00000002,0.00000218,-0.00000124,-0.00000001,0.0000108
 1,-0.00000121,0.,-0.00000678,-0.00000198,0.00000003,-0.00000314,-0.000
 00402,-0.00000008,0.00034483,0.00029136,0.00000002,-0.01188276,-0.0177
 6604,0.00000015,0.00074926,0.00042584,0.00000002,0.00010157,0.00085754
 ,0.00000004,-0.10707506,-0.29661152,0.00000185,0.00363849,-0.00040226,
 0.00000005,0.00058959,0.00077349,0.,0.00026044,-0.00031236,-0.00000008
 ,0.00001520,-0.00006459,-0.00000001,0.00001558,0.00005833,0.,0.0001233
 8,0.00050002,0.00000002,-0.00001282,0.00000230,0.,-0.00000465,0.000020
 79,0.00000002,-0.00000252,-0.00001736,-0.00000001,-0.00000656,0.000003
 88,-0.00000002,0.00002473,0.00000140,0.,0.00001207,0.00001257,0.000000
 03,-0.00040911,-0.00012715,0.,0.00003312,-0.00003040,0.00000003,-0.000
 06457,-0.00000679,-0.00000001,-0.00001610,-0.00000552,-0.00000008,-0.0
 0004148,-0.00001094,0.00000003,0.00000017,-0.00000135,0.00000002,-0.00
 000162,0.00000014,0.00000002,-0.00000139,-0.00000108,0.00000002,0.0000
 0124,-0.00000110,0.00000002,-0.00000805,-0.00001199,0.00000002,0.00000
 763,0.00000286,0.00000002,0.00009892,0.00098793,-0.00000002,0.11395759
 ,0.31293114,0.,0.,-0.00131001,0.,-0.00000002,0.00027940,0.,-0.00000001
 ,0.00007746,0.,0.,-0.00000051,0.00000001,0.,0.00000534,0.,0.00000001,0
 .00000115,0.,-0.00000001,0.00000204,0.,0.,-0.00001642,0.,0.00000001,-0
 .00000048,0.,0.,-0.00016486,0.,0.00000002,-0.00003600,0.,0.,-0.0000239
 5,0.,0.,-0.00001617,0.,-0.00000001,-0.00001638,0.,-0.00000001,-0.00000
 372,0.,0.,-0.00036234,0.,0.,-0.00000097,0.,0.,0.00079746,0.,0.,0.00000
 095,0.,0.,-0.00000082,-0.00000001,0.,0.00000036,0.,0.,0.00000153,0.,-0
 .00000001,-0.00000039,-0.00000002,0.,0.00000173,0.,-0.00000001,-0.0000
 0277,0.,0.,-0.00000323,-0.00000001,0.,-0.00059258,0.00000004,-0.000000
 02,0.00471640,0.00000008,0.00000013,0.00426129,0.00000002,0.,0.0034367
 2,0.00000084,0.00000191,-0.03814605,0.00000003,0.00000005,0.01009858,-
 0.00000004,-0.00000002,-0.00240633,0.,0.00000002,-0.00014004,0.,0.,0.0
 0009914,0.,0.,0.00001898,0.,-0.00000002,-0.00000016,0.00000001,0.00000
 001,0.00000199,0.,0.,0.00000077,0.,0.,-0.00000230,0.,0.,0.00000037,0.,
 0.,0.00000510,-0.00000001,-0.00000002,0.00000109,0.,0.,-0.00039838,0.,
 0.,0.00007438,0.,0.,0.00000287,0.,0.,-0.00000482,0.,0.,-0.00001376,0.,
 0.,0.00000045,0.,0.,0.00000051,0.,0.,0.00000027,0.,-0.00000001,0.00000
 080,0.,0.,0.00002309,0.,0.,-0.00000962,-0.00000002,-0.00000003,-0.0060
 5318,-0.00000096,-0.00000203,0.02582822,-0.00001898,0.00001015,0.,0.00
 001045,0.00000425,0.00000002,0.00000040,0.00000415,0.,0.00000268,0.000
 00428,0.,-0.00000226,-0.00000588,0.,-0.00000642,-0.00001277,0.,0.00000
 596,0.00000836,0.,-0.00000360,-0.00000042,0.00000002,0.00000142,0.0000
 0035,0.,-0.00000286,-0.00000654,0.,-0.00000366,-0.00000140,0.,0.000001
 94,-0.00004099,0.00000001,0.00000471,0.00000004,0.00000002,-0.00000183
 ,-0.00000167,-0.00000005,0.00000436,-0.00000317,-0.00000004,-0.0000016
 7,0.00002560,-0.00000004,-0.00000120,-0.00000433,0.00000002,-0.0000074
 3,-0.00001438,0.00000002,-0.00002312,-0.00000674,0.00000001,0.00001249
 ,-0.00000981,0.,-0.00000580,-0.00000898,0.,-0.00000769,0.00001576,0.00
 000002,-0.00000643,-0.00000255,0.,0.00001635,0.00001902,0.,-0.00000581
 ,-0.00003156,0.00000002,-0.00000196,-0.00002124,-0.00000004,-0.0000696
 4,-0.00011266,0.00000002,0.00001251,0.00002433,0.,-0.00031202,-0.00034
 503,0.,0.00062921,-0.00000037,0.00000001,0.00004637,-0.00004763,0.,0.0
 0000013,0.00005206,0.,0.00204710,-0.00112167,0.00000002,0.00031028,0.0
 0147040,-0.00000006,-0.11288909,-0.11320444,0.00000076,-0.00406767,0.0
 0223767,-0.00000002,-0.00302262,0.00181826,0.,-0.00003505,0.00004275,0
 .,-0.00008307,0.00010269,0.00000001,0.00003988,-0.00015406,0.,-0.00006
 022,-0.00000778,0.,-0.00029230,-0.00009729,0.,0.00005126,0.00002033,0.
 00000001,0.01101085,0.01802938,-0.00000012,-0.00057165,0.00033120,0.,-
 0.00886703,-0.02951672,0.00000018,0.00023368,-0.00012006,-0.00000004,-
 0.00075996,-0.00143782,0.00000002,0.00000110,-0.00000139,0.,-0.0000022
 4,-0.00000042,0.,-0.00000065,-0.00000101,0.,0.00000102,-0.00000009,0.,
 0.00000023,-0.00000101,0.,0.00000012,0.00000167,0.,0.00000279,-0.00000
 785,0.,-0.00005206,0.00001584,0.,0.11565857,-0.00000044,0.00001877,0.,
 -0.00000955,0.00002197,0.00000002,0.00001070,-0.00000894,-0.00000001,-
 0.00000688,-0.00000378,0.,-0.00000951,0.00001874,0.,0.00001438,0.00001
 445,0.,0.00000036,-0.00001815,0.,0.00001453,-0.00001828,0.00000003,-0.
 00000568,0.00000648,-0.00000001,-0.00001479,-0.00001252,0.,0.00001998,
 -0.00001141,0.,0.00002717,0.00006423,0.00000001,-0.00000123,-0.0000101
 3,0.00000003,0.00000052,-0.00000575,-0.00000008,-0.00000621,-0.0000021
 9,-0.00000007,0.00001158,-0.00005533,-0.00000007,-0.00000846,-0.000000
 70,0.00000004,0.00003732,-0.00004327,0.00000002,0.00002010,-0.00000361
 ,0.00000001,-0.00000963,0.00000799,0.,0.00001401,0.00000891,0.,0.00000
 023,-0.00001338,0.00000002,0.00000674,0.00000668,-0.00000001,-0.000007
 09,-0.00000625,0.,-0.00000931,0.00000637,0.00000003,-0.00000290,0.0000
 0383,-0.00000007,0.00001373,0.00014365,0.00000002,0.00004151,-0.000112
 85,-0.00000001,0.00062889,-0.00020366,0.,-0.00027756,0.00064718,0.0000
 0001,-0.00014771,0.00001069,0.,0.00005395,0.00001470,0.,-0.00210740,0.
 00281524,0.,-0.00100595,-0.00175839,-0.00000004,-0.11253027,-0.2892760
 1,0.00000168,0.00074304,0.00126923,0.00000006,0.00453622,-0.00119118,0
 .00000004,0.00001525,0.00000302,0.,0.00011330,0.00001824,0.00000001,-0
 .00001848,-0.00001074,0.,-0.00001411,0.00002766,-0.00000001,-0.0000460
 5,0.00015327,-0.00000002,-0.00003341,-0.00002613,0.00000003,-0.0134137
 6,-0.02023088,0.00000016,0.00067865,0.00031163,0.00000001,0.00123405,0
 .00332207,0.,-0.00021557,-0.00013523,-0.00000006,-0.00005122,-0.000018
 24,0.00000004,-0.00000122,-0.00000109,0.00000001,0.00000010,0.00000088
 ,0.00000001,-0.00000101,0.00000008,0.00000001,0.00000056,-0.00000166,0
 .00000001,-0.00000152,-0.00000161,0.00000001,0.00000432,-0.00000207,0.
 00000001,0.00000556,-0.00000298,0.00000001,0.00005468,0.00000699,0.000
 00001,0.12186485,0.30345998,0.,0.,0.00000508,0.,-0.00000002,0.00000109
 ,0.,-0.00000001,0.00000037,0.,0.,-0.00000039,0.,0.,0.00000172,0.,0.000
 00001,0.00000154,0.,0.,0.00000035,0.,0.,0.00000093,0.,0.00000001,-0.00
 000081,0.,0.,-0.00000229,0.,0.00000002,0.00000198,0.,0.,0.00000077,0.,
 0.,-0.00000277,0.,-0.00000002,-0.00000320,0.,-0.00000002,-0.00000370,0
 .00000002,0.,-0.00000482,0.,0.,-0.00000098,0.,0.,-0.00001375,0.,0.,-0.
 00001643,0.,0.,-0.00000048,-0.00000001,0.,0.00000205,0.,0.,0.00000113,
 0.,-0.00000002,-0.00000051,0.,0.,0.00000535,0.,-0.00000001,-0.00001618
 ,-0.00000001,0.,-0.00001635,0.,0.,0.00007437,-0.00000001,0.,0.00000284
 ,0.,0.,-0.00039851,-0.00000002,0.,-0.00000013,0.00000001,-0.00000002,0
 .00009909,0.,0.,0.00001896,0.00000002,-0.00000004,-0.00240934,0.000000
 02,0.00000003,-0.00013989,0.00000082,0.00000169,-0.03815459,0.,0.00000
 007,0.01010067,-0.00000003,0.00000001,0.00343614,0.00000002,0.00000002
 ,-0.00003600,0.00000001,0.,-0.00002390,0.,0.,-0.00016479,0.,0.,0.00007
 747,0.,-0.00000001,-0.00131005,-0.00000001,-0.00000002,0.00027945,0.00
 000006,0.00000020,0.00425868,0.,-0.00000001,-0.00059258,-0.00000007,-0
 .00000003,0.00472308,0.,0.,-0.00036309,0.,0.00000001,0.00079690,0.,0.,
 0.00000027,0.,0.,0.00000080,0.,0.,0.00000045,0.,-0.00000001,0.00000051
 ,0.,0.,0.00000080,0.,0.,-0.00000080,0.,0.,-0.00000960,0.,0.00000002,-0
 .00000262,-0.00000079,-0.00000187,0.02583696,0.00001774,-0.00001479,0.
 ,-0.00000518,-0.00001432,-0.00000002,-0.00000530,0.00000046,0.,0.00000
 066,-0.00000138,0.,0.00000678,-0.00000404,0.,-0.00000163,0.00000336,-0
 .00000001,-0.00000428,0.00000182,0.,-0.00000553,0.00000929,-0.00000002
 ,0.00000204,-0.00000326,0.,0.00000906,0.00000997,0.,-0.00000450,0.0000
 0657,0.,-0.00002029,0.00000385,-0.00000001,-0.00000338,0.00000391,-0.0
 0000003,0.00000258,0.00000397,0.00000006,-0.00000214,0.00000235,0.0000
 0005,-0.00000591,0.00001959,0.00000005,0.00000406,0.00000248,-0.000000
 03,-0.00001241,0.00002824,-0.00000003,0.00000151,0.00003002,-0.0000000
 2,-0.00000679,0.00000753,0.,-0.00000070,0.00000323,0.,0.00000992,-0.00
 000637,-0.00000001,0.00000263,-0.00000211,0.,-0.00001624,-0.00001623,0
 .,-0.00000457,0.00002110,-0.00000003,0.00000306,-0.00001525,0.00000006
 ,0.00004683,-0.00000766,-0.00000002,-0.00006140,-0.00000785,0.,-0.0003
 0348,0.00001733,0.,-0.00004302,-0.00011355,-0.00000001,0.00000918,0.00
 015762,0.,-0.00002407,-0.00004745,0.,-0.00099120,0.00126816,-0.0000000
 4,0.00016570,0.00017257,0.00000005,-0.01329122,0.02661428,-0.00000019,
 0.01087763,-0.01259345,0.00000009,-0.00036858,-0.00045460,0.,0.0000185
 5,-0.00005140,0.,0.00058165,-0.00001029,-0.00000001,0.00001267,0.00004
 811,0.,0.00001988,-0.00000112,0.,-0.00026113,0.00033535,0.,-0.00008028
 ,0.00007361,-0.00000002,-0.00339569,-0.00305743,0.00000001,-0.00189223
 ,-0.00193525,-0.00000002,-0.15655054,0.13639981,-0.00000094,0.00032704
 ,-0.00110607,0.00000007,0.00150892,0.00089817,-0.00000003,-0.00000025,
 0.00000126,0.,0.00000107,-0.00000112,0.,0.00000102,0.00000057,0.,-0.00
 000097,0.00000083,0.,0.00000059,0.00000169,0.,-0.00000221,-0.00000012,
 0.,-0.00000887,0.00001662,0.,0.00000054,-0.00000976,0.,0.00108679,-0.0
 0020679,0.,0.16269230,0.00001120,-0.00000766,0.,0.00000121,-0.00001589
 ,0.,-0.00000882,0.00000555,0.,0.00000465,0.00000724,0.,0.00000388,-0.0
 0001883,0.,-0.00001155,-0.00002023,0.,0.00000553,0.00002073,0.,-0.0000
 1785,0.00001352,0.,0.00000790,-0.00000312,0.,0.00000977,0.00001142,0.,
 -0.00001633,0.00000768,0.,-0.00002294,-0.00000645,0.,0.00000802,0.0000
 0141,0.00000002,0.00000698,-0.00000034,-0.00000003,0.00000006,-0.00000
 557,-0.00000003,0.00000132,0.00000773,-0.00000003,0.00000368,-0.000009
 51,0.00000003,0.00000604,0.00001298,0.00000002,-0.00003812,0.00006483,
 0.,0.00001580,-0.00000859,0.,-0.00001808,-0.00001423,0.,0.00000744,0.0
 0002245,0.,-0.00000870,-0.00001118,0.,-0.00000571,0.00001590,0.,-0.000
 03054,-0.00004597,0.00000002,-0.00000126,-0.00005981,-0.00000003,0.000
 04609,-0.00002162,0.00000001,-0.00000147,0.00002876,0.,-0.00003420,0.0
 0016438,-0.00000001,-0.00012410,-0.00002136,0.,0.00002200,0.00002002,0
 .,-0.00002001,-0.00000794,0.,-0.00011823,0.00021200,0.00000002,0.00026
 796,-0.00006712,-0.00000002,-0.00413210,0.00775209,-0.00000003,0.01885
 842,-0.02010315,0.00000019,-0.00080418,0.00011989,0.,-0.00005326,-0.00
 000393,0.,0.00026406,0.00069380,0.,0.00014832,0.00004497,0.,-0.0000183
 1,-0.00012018,0.,-0.00064057,-0.00025372,0.,-0.00005323,0.00015426,0.,
 -0.00156435,0.00060605,0.00000005,-0.00465577,-0.00233089,0.00000002,0
 .13572975,-0.24559602,0.00000138,0.00137238,-0.00177643,-0.00000001,0.
 00187463,0.00333208,0.,0.00000176,-0.00000112,0.,-0.00000376,-0.000003
 02,0.,-0.00000010,-0.00000168,0.,0.00000083,0.00000039,0.,0.00000152,-
 0.00000058,0.,-0.00000063,0.00000083,0.,-0.00000263,0.00000284,0.,0.00
 000367,-0.00000073,0.,0.00025478,0.00080301,-0.00000004,-0.14646585,0.
 25641934,0.,0.,0.00000533,0.,-0.00000002,0.00000113,0.,-0.00000001,-0.
 00000051,0.,0.,-0.00000082,0.,0.,0.00000035,0.,0.00000001,0.00000097,0
 .,0.,0.00000173,0.,0.,0.00000151,0.,0.00000002,-0.00000039,0.,0.,-0.00
 000047,0.,0.00000003,0.00000204,0.,0.,-0.00001640,0.,0.,-0.00000097,0.
 ,-0.00000002,-0.00000369,0.,-0.00000002,-0.00000322,0.00000001,0.,-0.0
 0001638,0.,0.,-0.00000278,0.,0.,-0.00001620,0.,0.,0.00000076,0.,0.,-0.
 00000230,-0.00000001,0.,0.00000199,0.,0.,0.00000110,0.,-0.00000002,0.0
 0000037,0.,0.,0.00000512,0.,-0.00000001,-0.00001377,-0.00000001,0.,-0.
 00000478,0.,0.,0.00027950,-0.00000001,0.,0.00007749,0.,0.,-0.00131034,
 -0.00000002,0.,-0.00002415,0.,-0.00000002,-0.00016493,0.,0.,-0.0000359
 7,0.,0.,0.00079715,0.,0.00000001,-0.00036351,0.00000002,0.,0.00472426,
 -0.00000009,0.00000017,0.00427524,0.,-0.00000003,-0.00059465,0.0000000
 3,0.00000002,0.00001912,0.00000001,0.,0.00000159,0.,0.,0.00009921,0.,0
 .,0.00000296,0.,0.,-0.00039839,-0.00000002,-0.00000002,0.00007448,0.,0
 .00000007,0.01009734,0.00000002,0.00000003,0.00343915,-0.00000094,0.00
 000136,-0.03817374,-0.00000002,0.00000002,-0.00013977,0.,-0.00000004,-
 0.00241576,0.,0.,0.00000080,0.,0.,-0.00000079,0.,0.,0.00000051,0.,-0.0
 0000002,0.00000045,0.,0.,0.00000027,0.,0.,0.00000080,0.,0.,0.00002309,
 0.,0.00000002,-0.00000959,0.,-0.00000004,-0.00605471,0.00000102,-0.000
 00154,0.02584532,0.00002017,-0.00000341,0.,0.00000850,-0.00002300,0.,-
 0.00000100,0.00000900,0.,0.00001749,0.00000669,0.,0.00000310,-0.000019
 11,0.,-0.00001423,-0.00002515,0.,-0.00000576,0.00001983,0.,-0.00001889
 ,0.00000621,0.,0.00000160,-0.00001134,0.,0.00000752,0.00000214,0.,-0.0
 0001589,0.00001219,0.,-0.00002069,-0.00000460,0.,0.00000470,0.00000507
 ,0.,0.00000354,0.00000665,0.,0.00001280,-0.00000556,0.,-0.00000440,0.0
 0000089,0.,0.00002098,-0.00000616,0.,-0.00000594,0.00000734,0.,-0.0001
 0036,-0.00010315,0.,0.00007664,-0.00000277,0.,-0.00003156,-0.00001724,
 0.,-0.00000109,0.00006358,0.,0.00001506,-0.00002937,0.,0.00010359,-0.0
 0018255,0.,0.00044103,-0.00064236,0.,0.00010261,0.00029084,0.,0.000021
 37,0.00000324,0.,-0.00001303,-0.00000296,0.,0.00000512,-0.00001350,0.,
 0.00005465,-0.00005754,0.,-0.00000084,0.00001366,0.,-0.00001747,-0.000
 01198,0.,-0.00004425,-0.00001606,0.,-0.00005793,0.00002093,0.,-0.00011
 027,0.00002914,0.,-0.00035663,-0.00060489,0.,0.00013334,-0.00013118,0.
 ,-0.00135814,-0.00230396,-0.00000004,-0.00439732,-0.00374268,0.,-0.147
 31225,0.13238840,-0.00000085,0.01252299,-0.01357358,0.00000008,-0.0144
 5000,0.02812126,-0.00000018,-0.00034316,-0.00081237,0.,-0.00003477,-0.
 00003382,0.,0.00076261,0.00019914,0.,0.00010465,0.00011469,0.,-0.00144
 195,0.00202028,-0.00000002,0.00402093,0.00096035,0.00000002,0.00000597
 ,-0.00000805,0.,-0.00000255,0.00000480,0.,0.00000024,-0.00000152,0.,0.
 00000058,0.00000152,0.,0.00000076,0.00000020,0.,-0.00000121,0.00000071
 ,0.,-0.00000006,0.00000169,0.,-0.00000411,-0.00000188,0.,-0.00000051,-
 0.00000362,0.,-0.00003863,-0.00006238,0.,0.15088186,-0.00000712,-0.000
 00372,0.,0.00000418,-0.00000052,0.,-0.00000215,-0.00000004,0.,0.000006
 91,0.00000297,0.,0.00000379,0.00000008,0.,0.00000163,-0.00001252,0.,-0
 .00000623,0.00001588,0.,-0.00000930,-0.00000218,0.00000001,-0.00000208
 ,-0.00000133,0.,-0.00000388,0.00000039,0.,0.00000422,0.00000381,0.,0.0
 0001028,-0.00000118,0.00000001,0.00000096,-0.00000665,0.,0.00000364,-0
 .00000132,-0.00000003,0.00001277,-0.00001103,-0.00000003,0.00000316,-0
 .00000331,-0.00000003,0.00001606,-0.00002046,0.00000001,0.00000613,0.0
 0000050,0.,-0.00009256,0.00003600,0.00000001,0.00013289,-0.00004741,0.
 ,-0.00004475,-0.00000041,0.,0.00000985,0.00002632,0.,-0.00003579,-0.00
 004776,0.,-0.00013122,-0.00024344,0.,0.00074442,-0.00121913,0.00000002
 ,0.00019550,-0.00000340,-0.00000004,-0.00001054,0.00001104,0.,0.000003
 60,0.00000450,0.,-0.00002403,-0.00000530,0.,0.00001054,0.00001151,0.00
 000001,0.00000536,-0.00001453,0.,0.00000932,0.00000247,0.,0.00003564,-
 0.00000644,0.,0.00000698,0.00000098,-0.00000003,0.00004633,0.00000967,
 0.,0.00037031,-0.00016124,0.,-0.00000437,-0.00005921,0.,-0.00379727,-0
 .00144580,0.00000003,-0.00102641,0.00018879,0.00000002,0.13306253,-0.2
 5466690,0.00000123,0.01717104,-0.01806522,0.00000014,-0.00333526,0.005
 19580,-0.00000001,-0.00046702,0.00009428,0.,-0.00003188,0.00004969,0.,
 -0.00007628,0.00051357,0.,0.00001438,-0.00004698,0.,-0.00046002,-0.000
 00689,-0.00000004,-0.00001129,0.00083026,0.,0.00001119,-0.00001199,0.,
 -0.00000862,0.00000238,0.,-0.00000101,-0.00000161,0.,0.00000169,-0.000
 00059,0.,0.00000020,-0.00000136,0.,0.00000138,0.00000055,0.,0.00000119
 ,-0.00000133,0.,0.00000078,0.00000216,0.,0.00000973,0.00000035,0.,-0.0
 0002498,-0.00000687,0.,-0.14218400,0.26809065,0.,0.,0.00000172,0.,-0.0
 0000002,0.00000152,0.,-0.00000001,-0.00000039,0.,0.,-0.00000047,0.0000
 0001,0.,0.00000204,0.,0.00000001,-0.00001641,0.,0.,0.00000534,-0.00000
 001,0.,0.00000112,0.,0.00000001,-0.00000051,0.,0.,-0.00000081,0.,0.000
 00002,0.00000034,0.,0.,0.00000095,0.,0.,-0.00000097,0.,-0.00000001,-0.
 00000369,0.,-0.00000002,-0.00001639,0.00000001,0.00000001,-0.00000322,
 0.,0.,-0.00001621,0.,0.,-0.00000277,0.,0.,-0.00002412,0.,0.,-0.0001648
 3,-0.00000001,0.,-0.00003598,0.,0.,0.00027967,0.,-0.00000002,0.0000774
 7,-0.00000001,0.00000001,-0.00130975,0.,0.,0.00079752,0.,0.,-0.0003637
 0,0.,0.,0.00000109,-0.00000001,0.,0.00000037,0.,-0.00000001,0.00000510
 ,-0.00000001,0.,0.00000075,0.,-0.00000002,-0.00000229,0.,0.00000001,0.
 00000198,0.,0.,-0.00001377,0.,0.00000002,-0.00000482,0.,-0.00000001,0.
 00000298,0.,0.,-0.00039850,0.00000001,-0.00000001,0.00007423,-0.000000
 02,0.00000005,0.01010218,-0.00000002,0.,0.00343601,-0.00000082,0.00000
 124,-0.03816441,-0.00000005,0.,0.00473073,-0.00000010,0.00000010,0.004
 27806,0.,-0.00000001,-0.00059348,-0.00000001,0.,0.00001898,0.,0.,0.000
 00059,0.,0.,0.00009887,0.,0.00000002,-0.00013951,0.00000003,0.,-0.0024
 0575,0.,0.,0.00002308,0.,0.,-0.00000956,0.,0.,0.00000080,0.00000001,-0
 .00000002,0.00000027,0.,0.,0.00000045,0.,0.,0.00000051,0.00000001,0.,0
 .00000080,0.,0.00000002,-0.00000079,0.,0.00000001,-0.00000962,0.,0.,-0
 .00000259,0.00000096,-0.00000134,0.02579707,-0.00001240,0.00000716,0.,
 -0.00001204,0.00001759,0.,0.00000417,-0.00000669,0.,-0.00001827,-0.000
 00917,0.,-0.00000437,0.00002019,0.,0.00005245,0.00000868,0.,0.00001739
 ,-0.00001377,0.,0.00001888,-0.00001259,0.,-0.00000303,0.00001193,0.,-0
 .00000383,-0.00000450,0.,0.00001134,-0.00001459,0.,0.00001247,0.000007
 46,0.,-0.00000880,0.00000377,0.,-0.00000570,0.00000200,0.,-0.00003708,
 0.00002457,0.,-0.00000441,-0.00000297,0.,-0.00003161,0.00004621,0.,-0.
 00000493,-0.00000712,0.,0.00055607,-0.00025063,0.,-0.00004791,-0.00011
 344,0.,0.00004726,0.00003660,0.,0.00008688,-0.00004339,0.,-0.00007686,
 0.00007425,0.,-0.00012623,0.00056381,0.,0.00168100,-0.00197115,0.00000
 002,-0.00136394,-0.00039597,0.,-0.00000756,0.00000018,0.,0.00000646,0.
 00000201,0.,0.00000027,-0.00000126,0.,-0.00000160,0.00001222,0.,0.0000
 0225,-0.00000585,0.,0.00000885,0.00000864,0.,-0.00000826,-0.00000838,0
 .,-0.00000473,-0.00000192,0.,0.00001017,-0.00003988,0.,0.00005415,-0.0
 0017273,0.,-0.00002114,-0.00000687,0.,-0.01509251,-0.00387052,-0.00000
 008,0.00054346,0.00027626,0.,-0.00723159,0.00063920,-0.00000005,-0.341
 11766,-0.02911853,-0.00000107,0.00158910,-0.00132685,-0.00000003,0.000
 64548,0.00319343,-0.00000001,0.00001722,-0.00000392,0.,0.00007600,0.00
 005522,0.,-0.00006040,0.00001822,0.,-0.00019926,-0.00005677,0.00000001
 ,-0.00058586,-0.00011457,0.,-0.00000299,0.00000765,0.,0.00002297,0.000
 02674,0.,0.00000012,0.00000433,0.,-0.00000222,-0.00000061,0.,-0.000001
 22,0.00000139,0.,-0.00000067,-0.00000100,0.,-0.00000168,-0.00000021,0.
 ,0.00000041,-0.00000087,0.,-0.00000614,0.00000107,0.,0.00000223,-0.000
 00461,0.,0.00085047,-0.00012056,0.00000003,0.35978936,0.00001512,0.000
 00030,0.,0.00000265,-0.00000985,0.,-0.00000065,0.00000373,0.,-0.000000
 90,0.00000287,0.,-0.00000107,-0.00001055,0.,-0.00005946,0.00001377,-0.
 00000001,-0.00000322,-0.00001766,0.,0.00000117,0.00001353,0.,0.0000053
 9,-0.00000549,0.,0.00000666,0.00000276,0.,-0.00001083,0.00000515,0.,-0
 .00001969,-0.00000447,0.,0.00000496,0.00000334,0.,-0.00000025,-0.00000
 196,0.00000002,0.00003856,-0.00002004,0.00000002,0.00000003,0.00000662
 ,0.00000002,-0.00000548,-0.00001908,0.,-0.00000300,0.00000299,0.,0.000
 02598,0.00072118,0.,-0.00001322,0.00010572,0.,0.00003470,-0.00003226,0
 .,-0.00017022,-0.00001255,-0.00000001,0.00005721,-0.00002378,0.,-0.000
 41292,-0.00039258,0.,-0.00099807,0.00317143,-0.00000002,0.00208321,-0.
 00008296,0.00000004,0.00001568,-0.00001353,0.,-0.00000726,-0.00000621,
 0.,0.00002487,0.00000983,0.,-0.00001461,-0.00002510,0.,-0.00000604,0.0
 0001821,0.,-0.00001428,-0.00000568,0.,-0.00003064,0.00000879,0.,-0.000
 02026,0.00000653,0.00000002,-0.00003353,-0.00004281,0.,-0.00022417,-0.
 00019356,0.,0.00004682,0.00004633,0.,0.02759261,0.00583999,0.00000011,
 -0.00007068,-0.00079307,0.,-0.03010353,0.00170227,-0.00000011,-0.02980
 083,-0.06083365,-0.00000005,0.00016551,-0.00439771,0.00000005,0.000479
 76,-0.00485637,0.,0.00002362,-0.00004925,0.,0.00004465,-0.00014075,0.,
 -0.00011736,0.00008958,0.,0.00003853,0.00029829,0.00000002,-0.00150125
 ,-0.00019188,-0.00000001,-0.00000571,0.00000286,0.,-0.00001103,-0.0000
 6819,0.,0.00000166,-0.00000207,0.,-0.00000012,0.00000084,0.,0.00000072
 ,0.00000055,0.,-0.00000100,0.00000009,0.,-0.00000038,0.00000169,0.,-0.
 00000138,-0.00000177,0.,-0.00001818,0.00000012,0.,0.00000879,-0.000002
 38,0.,0.00033126,0.00103346,-0.00000002,0.03263110,0.05914445,0.,0.,0.
 00000035,0.,-0.00000002,0.00000093,0.,-0.00000001,-0.00000081,0.,0.,-0
 .00000229,0.,0.,0.00000198,0.,0.00000001,0.00000075,0.00000001,0.,0.00
 000509,0.,0.,0.00000107,0.,0.00000002,0.00000038,0.,0.,-0.00000038,0.,
 0.00000003,0.00000172,0.,0.,0.00000152,0.,0.,-0.00000278,0.,-0.0000000
 2,-0.00000318,0.,-0.00000002,-0.00000481,0.00000002,0.,-0.00000368,0.,
 0.,-0.00001379,0.,0.,-0.00000098,0.00000001,0.,0.00000013,0.,0.,0.0000
 9886,-0.00000001,0.00000001,0.00001898,0.,0.,0.00007425,0.,-0.00000002
 ,0.00000301,0.,0.00000001,-0.00039827,0.00000002,-0.00000004,-0.002404
 24,-0.00000003,0.,-0.00013949,0.,0.,0.00000111,-0.00000001,0.,-0.00000
 051,0.,0.,0.00000535,-0.00000002,0.,-0.00001644,0.,-0.00000002,-0.0000
 0048,0.,0.00000001,0.00000204,0.,0.,-0.00001620,0.,0.00000002,-0.00001
 634,0.,0.,0.00007748,0.,0.,-0.00130986,0.00000001,-0.00000002,0.000279
 55,-0.00000015,0.00000002,0.00428754,0.00000002,0.,-0.00059373,0.00000
 007,0.00000004,0.00472941,-0.00000108,-0.00000009,-0.03815334,-0.00000
 004,0.00000004,0.01010123,-0.00000003,0.00000002,0.00343630,-0.0000000
 1,0.,-0.00003599,0.,0.,-0.00002397,0.,0.,-0.00016481,0.,0.00000001,-0.
 00036322,0.,0.00000001,0.00079778,0.,0.,-0.00000962,0.,0.,-0.00000267,
 0.,0.,-0.00000079,0.00000001,-0.00000002,0.00000080,0.,0.,0.00000051,0
 .,0.,0.00000045,0.00000001,0.,0.00000027,0.,0.00000002,0.00000080,0.,0
 .00000001,0.00002308,0.,0.,-0.00000956,0.00000002,-0.00000002,-0.00603
 730,0.00000119,0.00000001,0.02577680\\0.00004480,0.00006629,0.00000005
 ,-0.00000554,-0.00003770,0.00000004,-0.00004289,-0.00006421,0.00000002
 ,-0.00014931,0.00000796,-0.00000005,0.00000811,0.00004361,0.00000017,0
 .00003235,0.00004148,0.,-0.00003228,-0.00007517,0.00000004,0.00005410,
 0.00006651,0.,0.00006703,0.00001299,0.00000002,-0.00000213,0.00012632,
 -0.00000002,-0.00008157,-0.00003811,0.00000009,-0.00001393,-0.00001326
 ,0.00000002,-0.00002662,0.00005336,-0.00000007,0.00001211,-0.00002686,
 -0.00000014,-0.00001664,-0.00016177,-0.00000001,0.00009602,-0.00010315
 ,-0.00000004,-0.00000494,0.00011312,-0.00000005,-0.00009273,0.00007324
 ,-0.00000002,0.00008318,0.00006716,-0.00000008,-0.00004142,0.00003824,
 -0.00000001,-0.00005128,-0.00004619,0.00000011,0.00003158,0.00008956,-
 0.00000012,0.00005848,-0.00009203,-0.00000005,-0.00003186,0.00000285,0
 .00000015,0.00009282,-0.00007395,-0.00000003,-0.00009595,0.00010267,-0
 .00000007,-0.00008312,-0.00006680,-0.00000002,0.00004151,-0.00003863,0
 .,0.00005189,0.00004505,0.00000003,-0.00003062,-0.00008921,-0.00000005
 ,-0.00005891,0.00009238,-0.00000004,0.00003158,-0.00000228,0.00000010,
 0.00000349,-0.00011261,0.00000003,0.00001566,0.00016215,-0.00000010,0.
 00014886,-0.00000794,0.,-0.00000928,-0.00004362,0.00000010,-0.00003207
 ,-0.00004236,0.00000004,-0.00004464,-0.00006569,0.00000001,0.00000492,
 0.00003787,0.00000006,0.00004317,0.00006448,0.00000003,0.00000218,-0.0
 0012665,0.,0.00008116,0.00003727,0.00000002,0.00001366,0.00001346,0.00
 000011,0.00003379,0.00007567,-0.00000005,-0.00005429,-0.00006701,0.000
 00004,-0.00006661,-0.00001285,0.00000002,-0.00001148,0.00002720,-0.000
 00017,0.00002764,-0.00005277,0.,-0.00003875,0.00001761,0.00000006,-0.0
 0001393,-0.00003318,-0.00000002,0.00003642,-0.00001040,0.00000003,-0.0
 0003743,-0.00004450,-0.00000006,0.00003976,0.00001152,-0.00000001,0.00
 000268,-0.00004526,-0.00000002,0.00001395,0.00003318,-0.00000004,0.000
 03878,-0.00001767,0.00000005,-0.00003645,0.00001040,0.00000003,0.00003
 744,0.00004451,-0.00000005,-0.00003978,-0.00001154,-0.00000003,-0.0000
 0270,0.00004526,-0.00000003\\\@


 NOTHING MAKES A PERSON MORE PRODUCTIVE THAN THE LAST MINUTE.
 Job cpu time:       0 days  6 hours 20 minutes  8.3 seconds.
 File lengths (MBytes):  RWF=   3814 Int=      0 D2E=      0 Chk=     47 Scr=      1
 Normal termination of Gaussian 09 at Mon Nov 10 06:52:44 2025.
