 Entering Gaussian System, Link 0=g16
 Initial command:
 /home/user/g16/l1.exe "/home/user/scratch/Gau-86306.inp" -scrdir="/home/user/scratch/"
 Entering Link 1 = /home/user/g16/l1.exe PID=     86308.
  
 Copyright (c) 1988,1990,1992,1993,1995,1998,2003,2009,2016,
            Gaussian, Inc.  All Rights Reserved.
  
 This is part of the Gaussian(R) 16 program.  It is based on
 the Gaussian(R) 09 system (copyright 2009, Gaussian, Inc.),
 the Gaussian(R) 03 system (copyright 2003, Gaussian, Inc.),
 the Gaussian(R) 98 system (copyright 1998, Gaussian, Inc.),
 the Gaussian(R) 94 system (copyright 1995, Gaussian, Inc.),
 the Gaussian 92(TM) system (copyright 1992, Gaussian, Inc.),
 the Gaussian 90(TM) system (copyright 1990, Gaussian, Inc.),
 the Gaussian 88(TM) system (copyright 1988, Gaussian, Inc.),
 the Gaussian 86(TM) system (copyright 1986, Carnegie Mellon
 University), and the Gaussian 82(TM) system (copyright 1983,
 Carnegie Mellon University). Gaussian is a federally registered
 trademark of Gaussian, Inc.
  
 This software contains proprietary and confidential information,
 including trade secrets, belonging to Gaussian, Inc.
  
 This software is provided under written license and may be
 used, copied, transmitted, or stored only in accord with that
 written license.
  
 The following legend is applicable only to US Government
 contracts under FAR:
  
                    RESTRICTED RIGHTS LEGEND
  
 Use, reproduction and disclosure by the US Government is
 subject to restrictions as set forth in subparagraphs (a)
 and (c) of the Commercial Computer Software - Restricted
 Rights clause in FAR 52.227-19.
  
 Gaussian, Inc.
 340 Quinnipiac St., Bldg. 40, Wallingford CT 06492
  
  
 ---------------------------------------------------------------
 Warning -- This program may not be used in any manner that
 competes with the business of Gaussian, Inc. or will provide
 assistance to any competitor of Gaussian, Inc.  The licensee
 of this program is prohibited from giving any competitor of
 Gaussian, Inc. access to this program.  By using this program,
 the user acknowledges that Gaussian, Inc. is engaged in the
 business of creating and licensing software in the field of
 computational chemistry and represents and warrants to the
 licensee that it is not a competitor of Gaussian, Inc. and that
 it will not use this program in any manner prohibited above.
 ---------------------------------------------------------------
  

 Cite this work as:
 Gaussian 16, Revision A.03,
 M. J. Frisch, G. W. Trucks, H. B. Schlegel, G. E. Scuseria, 
 M. A. Robb, J. R. Cheeseman, G. Scalmani, V. Barone, 
 G. A. Petersson, H. Nakatsuji, X. Li, M. Caricato, A. V. Marenich, 
 J. Bloino, B. G. Janesko, R. Gomperts, B. Mennucci, H. P. Hratchian, 
 J. V. Ortiz, A. F. Izmaylov, J. L. Sonnenberg, D. Williams-Young, 
 F. Ding, F. Lipparini, F. Egidi, J. Goings, B. Peng, A. Petrone, 
 T. Henderson, D. Ranasinghe, V. G. Zakrzewski, J. Gao, N. Rega, 
 G. Zheng, W. Liang, M. Hada, M. Ehara, K. Toyota, R. Fukuda, 
 J. Hasegawa, M. Ishida, T. Nakajima, Y. Honda, O. Kitao, H. Nakai, 
 T. Vreven, K. Throssell, J. A. Montgomery, Jr., J. E. Peralta, 
 F. Ogliaro, M. J. Bearpark, J. J. Heyd, E. N. Brothers, K. N. Kudin, 
 V. N. Staroverov, T. A. Keith, R. Kobayashi, J. Normand, 
 K. Raghavachari, A. P. Rendell, J. C. Burant, S. S. Iyengar, 
 J. Tomasi, M. Cossi, J. M. Millam, M. Klene, C. Adamo, R. Cammi, 
 J. W. Ochterski, R. L. Martin, K. Morokuma, O. Farkas, 
 J. B. Foresman, and D. J. Fox, Gaussian, Inc., Wallingford CT, 2016.
 
 ******************************************
 Gaussian 16:  ES64L-G16RevA.03 25-Dec-2016
                 1-Nov-2025 
 ******************************************
 %mem=12GB
 %nprocshared=32
 Will use up to   32 processors via shared memory.
 -----------------------------------------------------
 # opt freq b3lyp/6-31g(d,p) geom=connectivity scf=xqc
 -----------------------------------------------------
 1/18=20,19=15,26=3,38=1,57=2/1,3;
 2/9=110,12=2,17=6,18=5,40=1/2;
 3/5=1,6=6,7=101,11=2,25=1,30=1,71=1,74=-5/1,2,3;
 4//1;
 5/5=2,8=3,13=1,38=5/2,8;
 6/7=2,8=2,9=2,10=2,28=1/1;
 7//1,2,3,16;
 1/18=20,19=15,26=3/3(2);
 2/9=110/2;
 99//99;
 2/9=110/2;
 3/5=1,6=6,7=101,11=2,25=1,30=1,71=1,74=-5/1,2,3;
 4/5=5,16=3,69=1/1;
 5/5=2,8=3,13=1,38=5/2,8;
 7//1,2,3,16;
 1/18=20,19=15,26=3/3(-5);
 2/9=110/2;
 6/7=2,8=2,9=2,10=2,19=2,28=1/1;
 99/9=1/99;
 -------------------
 Title Card Required
 -------------------
 Symbolic Z-matrix:
 Charge =  0 Multiplicity = 2
 Co                   -0.61538  -0.04274   0. 
 

 GradGradGradGradGradGradGradGradGradGradGradGradGradGradGradGradGradGrad
 Berny optimization.
 Initialization pass.
 No Z-matrix variables, so optimization will use Cartesian coordinates.
 Trust Radius=1.00D-01 FncErr=1.00D-07 GrdErr=1.00D-06 EigMax=2.50D+02 EigMin=1.00D-04
 Number of steps in this run=     20 maximum allowed number of steps=    100.
 GradGradGradGradGradGradGradGradGradGradGradGradGradGradGradGradGradGrad

                          Input orientation:                          
 ---------------------------------------------------------------------
 Center     Atomic      Atomic             Coordinates (Angstroms)
 Number     Number       Type             X           Y           Z
 ---------------------------------------------------------------------
      1         27           0       -0.615385   -0.042735    0.000000
 ---------------------------------------------------------------------
 Stoichiometry    Co(2)
 Framework group  OH[O(Co)]
 Deg. of freedom     0
 Full point group                 OH      NOp  48
 Largest Abelian subgroup         D2H     NOp   8
 Largest concise Abelian subgroup C1      NOp   1
                         Standard orientation:                         
 ---------------------------------------------------------------------
 Center     Atomic      Atomic             Coordinates (Angstroms)
 Number     Number       Type             X           Y           Z
 ---------------------------------------------------------------------
      1         27           0        0.000000    0.000000    0.000000
 ---------------------------------------------------------------------
 Standard basis: 6-31G(d,p) (6D, 7F)
 There are    11 symmetry adapted cartesian basis functions of AG  symmetry.
 There are     2 symmetry adapted cartesian basis functions of B1G symmetry.
 There are     2 symmetry adapted cartesian basis functions of B2G symmetry.
 There are     2 symmetry adapted cartesian basis functions of B3G symmetry.
 There are     1 symmetry adapted cartesian basis functions of AU  symmetry.
 There are     7 symmetry adapted cartesian basis functions of B1U symmetry.
 There are     7 symmetry adapted cartesian basis functions of B2U symmetry.
 There are     7 symmetry adapted cartesian basis functions of B3U symmetry.
 There are    11 symmetry adapted basis functions of AG  symmetry.
 There are     2 symmetry adapted basis functions of B1G symmetry.
 There are     2 symmetry adapted basis functions of B2G symmetry.
 There are     2 symmetry adapted basis functions of B3G symmetry.
 There are     1 symmetry adapted basis functions of AU  symmetry.
 There are     6 symmetry adapted basis functions of B1U symmetry.
 There are     6 symmetry adapted basis functions of B2U symmetry.
 There are     6 symmetry adapted basis functions of B3U symmetry.
    36 basis functions,   104 primitive gaussians,    39 cartesian basis functions
    14 alpha electrons       13 beta electrons
       nuclear repulsion energy         0.0000000000 Hartrees.
 NAtoms=    1 NActive=    1 NUniq=    1 SFac= 1.00D+00 NAtFMM=   60 NAOKFM=F Big=F
 Integral buffers will be    131072 words long.
 Raffenetti 2 integral format.
 Two-electron integral symmetry is turned on.
 One-electron integrals computed using PRISM.
 NBasis=    36 RedAO= T EigKep=  1.52D-03  NBF=    11     2     2     2     1     6     6     6
 NBsUse=    36 1.00D-06 EigRej= -1.00D+00 NBFU=    11     2     2     2     1     6     6     6
 ExpMin= 4.30D-02 ExpMax= 6.61D+04 ExpMxC= 9.93D+03 IAcc=3 IRadAn=         5 AccDes= 0.00D+00
 Harris functional with IExCor=  402 and IRadAn=       5 diagonalized for initial guess.
 HarFok:  IExCor=  402 AccDes= 0.00D+00 IRadAn=         5 IDoV= 1 UseB2=F ITyADJ=14
 ICtDFT=  3500011 ScaDFX=  1.000000  1.000000  1.000000  1.000000
 FoFCou: FMM=F IPFlag=           0 FMFlag=      100000 FMFlg1=           0
         NFxFlg=           0 DoJE=T BraDBF=F KetDBF=T FulRan=T
         wScrn=  0.000000 ICntrl=       500 IOpCl=  0 I1Cent=   200000004 NGrid=           0
         NMat0=    1 NMatS0=      1 NMatT0=    0 NMatD0=    1 NMtDS0=    0 NMtDT0=    0
 Petite list used in FoFCou.
 Initial guess orbital symmetries:
 Alpha Orbitals:
       Occupied  (A1G) (A1G) (T1U) (T1U) (T1U) (A1G) (T1U) (T1U)
                 (T1U) (T2G) (T2G) (T2G) (EG) (EG)
       Virtual   (A1G) (T1U) (T1U) (T1U) (A1G) (T1U) (T1U) (T1U)
                 (A1G) (T2G) (T2G) (T2G) (EG) (EG) (T2U) (T2U)
                 (T2U) (A2U) (T1U) (T1U) (T1U) (A1G)
 Beta  Orbitals:
       Occupied  (A1G) (A1G) (T1U) (T1U) (T1U) (A1G) (T1U) (T1U)
                 (T1U) (T2G) (T2G) (T2G) (EG)
       Virtual   (EG) (A1G) (T1U) (T1U) (T1U) (A1G) (T1U) (T1U)
                 (T1U) (A1G) (T2G) (T2G) (T2G) (EG) (EG) (T2U)
                 (T2U) (T2U) (A2U) (T1U) (T1U) (T1U) (A1G)
 Initial guess <Sx>= 0.0000 <Sy>= 0.0000 <Sz>= 0.5000 <S**2>= 0.7500 S= 0.5000
 Keep R1 and R2 ints in memory in symmetry-blocked form, NReq=27837821.
 Requested convergence on RMS density matrix=1.00D-08 within  32 cycles.
 Requested convergence on MAX density matrix=1.00D-06.
 Requested convergence on             energy=1.00D-06.
 No special actions if energy rises.
 Density matrix breaks symmetry, PCut= 1.00D-04
 Density has only Abelian symmetry.
 Density matrix breaks symmetry, PCut= 1.00D-04
 Density has only Abelian symmetry.
 Density matrix breaks symmetry, PCut= 1.00D-04
 Density has only Abelian symmetry.
 Density matrix breaks symmetry, PCut= 1.00D-04
 Density has only Abelian symmetry.
 Density matrix breaks symmetry, PCut= 1.00D-04
 Density has only Abelian symmetry.
 Density matrix breaks symmetry, PCut= 1.00D-04
 Density has only Abelian symmetry.
 Density matrix breaks symmetry, PCut= 1.00D-04
 Density has only Abelian symmetry.
 Density matrix breaks symmetry, PCut= 1.00D-04
 Density has only Abelian symmetry.
 Density matrix breaks symmetry, PCut= 1.00D-04
 Density has only Abelian symmetry.
 Density matrix breaks symmetry, PCut= 1.00D-04
 Density has only Abelian symmetry.
 Density matrix breaks symmetry, PCut= 1.00D-04
 Density has only Abelian symmetry.
 Density matrix breaks symmetry, PCut= 1.00D-04
 Density has only Abelian symmetry.
 Density matrix breaks symmetry, PCut= 1.00D-04
 Density has only Abelian symmetry.
 Rare condition: small coef for last iteration:  0.000D+00
 Density matrix breaks symmetry, PCut= 1.00D-04
 Density has only Abelian symmetry.
 Rare condition: small coef for last iteration:  0.000D+00
 Density matrix breaks symmetry, PCut= 1.00D-04
 Density has only Abelian symmetry.
 Rare condition: small coef for last iteration:  0.000D+00
 Density matrix breaks symmetry, PCut= 1.00D-04
 Density has only Abelian symmetry.
 Density matrix breaks symmetry, PCut= 1.00D-04
 Density has only Abelian symmetry.
 Rare condition: small coef for last iteration:  0.000D+00
 Density matrix breaks symmetry, PCut= 1.00D-04
 Density has only Abelian symmetry.
 Density matrix breaks symmetry, PCut= 1.00D-04
 Density has only Abelian symmetry.
 Density matrix breaks symmetry, PCut= 1.00D-04
 Density has only Abelian symmetry.
 Density matrix breaks symmetry, PCut= 1.00D-04
 Density has only Abelian symmetry.
 Density matrix breaks symmetry, PCut= 1.00D-04
 Density has only Abelian symmetry.
 Density matrix breaks symmetry, PCut= 1.00D-04
 Density has only Abelian symmetry.
 Density matrix breaks symmetry, PCut= 1.00D-04
 Density has only Abelian symmetry.
 Density matrix breaks symmetry, PCut= 1.00D-04
 Density has only Abelian symmetry.
 Density matrix breaks symmetry, PCut= 1.00D-04
 Density has only Abelian symmetry.
 Density matrix breaks symmetry, PCut= 1.00D-04
 Density has only Abelian symmetry.
 Density matrix breaks symmetry, PCut= 1.00D-04
 Density has only Abelian symmetry.
 Density matrix breaks symmetry, PCut= 1.00D-04
 Density has only Abelian symmetry.
 Density matrix breaks symmetry, PCut= 1.00D-04
 Density has only Abelian symmetry.
 Density matrix breaks symmetry, PCut= 1.00D-04
 Density has only Abelian symmetry.
 SCF Done:  E(UB3LYP) =  -1382.46057883     A.U. after   30 cycles
            NFock= 30  Conv=0.54D-08     -V/T= 2.0010
 <Sx>= 0.0000 <Sy>= 0.0000 <Sz>= 0.5000 <S**2>= 1.2166 S= 0.7110
 <L.S>= 0.000000000000E+00
 Annihilation of the first spin contaminant:
 S**2 before annihilation     1.2166,   after     0.7505
 QCSCF skips out because SCF is already converged.
 SCF density gives NOpUse=  8 NOpAll= 48.

 **********************************************************************

            Population analysis using the SCF density.

 **********************************************************************

 Orbital symmetries:
 Alpha Orbitals:
       Occupied  (A1G) (A1G) (T1U) (T1U) (T1U) (A1G) (T1U) (T1U)
                 (T1U) (?A) (T2G) (T2G) (T2G) (?A)
       Virtual   (?A) (T1U) (T1U) (T1U) (?A) (T1U) (T1U) (T1U)
                 (?A) (?A) (T2G) (T2G) (?A) (T2G) (?B) (?B) (?B)
                 (?B) (?B) (?B) (A2U) (A1G)
 Beta  Orbitals:
       Occupied  (A1G) (A1G) (T1U) (T1U) (T1U) (?A) (T1U) (T1U)
                 (T1U) (T2G) (T2G) (?A) (T2G)
       Virtual   (?B) (?B) (?B) (?A) (?A) (?A) (?B) (?B) (?B) (?A)
                 (T2G) (T2G) (T2G) (?A) (?A) (A2U) (?C) (?C) (?C)
                 (?C) (?C) (?C) (A1G)
 Unable to determine electronic state:  an orbital has unidentified symmetry.
 Alpha  occ. eigenvalues -- -277.45292 -32.79365 -28.44204 -28.43768 -28.43403
 Alpha  occ. eigenvalues --   -3.69564  -2.38948  -2.37621  -2.37416  -0.24054
 Alpha  occ. eigenvalues --   -0.22863  -0.22257  -0.20213  -0.19218
 Alpha virt. eigenvalues --   -0.11623  -0.01525  -0.01326  -0.01276   0.12137
 Alpha virt. eigenvalues --    0.21575   0.21617   0.21709   1.03675   1.65324
 Alpha virt. eigenvalues --    1.66054   1.66501   1.66644   1.67692   2.30467
 Alpha virt. eigenvalues --    2.30598   2.30672   2.30922   2.31481   2.31611
 Alpha virt. eigenvalues --    2.31948  25.94355
  Beta  occ. eigenvalues -- -277.45309 -32.76546 -28.42699 -28.41170 -28.40550
  Beta  occ. eigenvalues --   -3.62701  -2.33246  -2.29987  -2.28746  -0.19819
  Beta  occ. eigenvalues --   -0.19346  -0.18288  -0.17753
  Beta virt. eigenvalues --   -0.02361  -0.01573  -0.01565  -0.01387   0.03437
  Beta virt. eigenvalues --    0.12113   0.20867   0.22395   0.22481   1.04973
  Beta virt. eigenvalues --    1.67191   1.67453   1.69170   1.71198   1.75093
  Beta virt. eigenvalues --    2.31628   2.32088   2.32095   2.32806   2.33432
  Beta virt. eigenvalues --    2.36461   2.36575  25.98174
          Condensed to atoms (all electrons):
               1
     1  Co  27.000000
          Atomic-Atomic Spin Densities.
               1
     1  Co   1.000000
 Mulliken charges and spin densities:
               1          2
     1  Co  -0.000000   1.000000
 Sum of Mulliken charges =  -0.00000   1.00000
 Mulliken charges and spin densities with hydrogens summed into heavy atoms:
               1          2
     1  Co  -0.000000   1.000000
 Electronic spatial extent (au):  <R**2>=             35.3966
 Charge=             -0.0000 electrons
 Dipole moment (field-independent basis, Debye):
    X=              0.0000    Y=              0.0000    Z=              0.0000  Tot=              0.0000
 Quadrupole moment (field-independent basis, Debye-Ang):
   XX=            -16.1704   YY=            -16.1934   ZZ=            -15.2458
   XY=              0.0000   XZ=              0.0000   YZ=             -0.0000
 Traceless Quadrupole moment (field-independent basis, Debye-Ang):
   XX=             -0.3005   YY=             -0.3235   ZZ=              0.6240
   XY=              0.0000   XZ=              0.0000   YZ=             -0.0000
 Octapole moment (field-independent basis, Debye-Ang**2):
  XXX=              0.0000  YYY=              0.0000  ZZZ=              0.0000  XYY=              0.0000
  XXY=              0.0000  XXZ=              0.0000  XZZ=              0.0000  YZZ=              0.0000
  YYZ=              0.0000  XYZ=              0.0000
 Hexadecapole moment (field-independent basis, Debye-Ang**3):
 XXXX=            -32.2864 YYYY=            -32.3613 ZZZZ=            -31.2122 XXXY=              0.0000
 XXXZ=              0.0000 YYYX=             -0.0000 YYYZ=             -0.0000 ZZZX=              0.0000
 ZZZY=             -0.0000 XXYY=            -10.8655 XXZZ=            -10.7052 YYZZ=            -10.7265
 XXYZ=             -0.0000 YYXZ=              0.0000 ZZXY=              0.0000
 N-N= 0.000000000000D+00 E-N=-3.298012287204D+03  KE= 1.381062143840D+03
 Symmetry AG   KE= 8.749297395137D+02
 Symmetry B1G  KE= 1.560382878879D+01
 Symmetry B2G  KE= 1.562302493392D+01
 Symmetry B3G  KE= 1.565539553534D+01
 Symmetry AU   KE= 3.270727490172D-37
 Symmetry B1U  KE= 1.530999213758D+02
 Symmetry B2U  KE= 1.530783266829D+02
 Symmetry B3U  KE= 1.530719070100D+02
 Symmetry AG   SP= 1.000000000000D+00
 Symmetry B1G  SP=-4.412702842016D-16
 Symmetry B2G  SP=-4.245735707453D-16
 Symmetry B3G  SP= 2.059984127722D-16
 Symmetry AU   SP=-2.439462680007D-39
 Symmetry B1U  SP=-1.526253082251D-14
 Symmetry B2U  SP= 2.017940122726D-14
 Symmetry B3U  SP=-4.749266301410D-15
                          Isotropic Fermi Contact Couplings
        Atom                 a.u.       MegaHertz       Gauss      10(-4) cm-1
     1  Co(59)            -1.14227   -1208.42819    -431.19723    -403.08825
 --------------------------------------------------------
       Center         ----  Spin Dipole Couplings  ----
                      3XX-RR        3YY-RR        3ZZ-RR
 --------------------------------------------------------
     1   Atom        1.318481      0.537491     -1.855972
 --------------------------------------------------------
                        XY            XZ            YZ
 --------------------------------------------------------
     1   Atom        0.000000      0.000000      0.000000
 --------------------------------------------------------


 ---------------------------------------------------------------------------------
              Anisotropic Spin Dipole Couplings in Principal Axis System
 ---------------------------------------------------------------------------------

       Atom             a.u.   MegaHertz   Gauss  10(-4) cm-1        Axes

              Baa    -1.8560  -234.371   -83.629   -78.178  0.0000  0.0000  1.0000
     1 Co(59) Bbb     0.5375    67.874    24.219    22.640 -0.0000  1.0000  0.0000
              Bcc     1.3185   166.497    59.410    55.537  1.0000  0.0000  0.0000
 

 ---------------------------------------------------------------------------------

 Density matrix has only Abelian symmetry.
 Density matrix has only Abelian symmetry.
 Calling FoFJK, ICntrl=      2127 FMM=F ISym2X=1 I1Cent= 0 IOpClX= 1 NMat=1 NMatS=1 NMatT=0.
 ***** Axes restored to original set *****
 -------------------------------------------------------------------
 Center     Atomic                   Forces (Hartrees/Bohr)
 Number     Number              X              Y              Z
 -------------------------------------------------------------------
      1       27          -0.000000000   -0.000000000   -0.000000000
 -------------------------------------------------------------------
 Cartesian Forces:  Max     0.000000000 RMS     0.000000000

 GradGradGradGradGradGradGradGradGradGradGradGradGradGradGradGradGradGrad
 Berny optimization.
 Search for a local minimum.
 Step number   1 out of a maximum of   20
 All quantities printed in internal units (Hartrees-Bohrs-Radians)
 Mixed Optimization -- En-DIIS/RFO-DIIS
 Second derivative matrix not updated -- first step.
 The second derivative matrix:
                          X1        Y1        Z1
           X1           0.00000
           Y1           0.00000   0.00000
           Z1           0.00000   0.00000   0.00000
 ITU=  0
     Eigenvalues --- 
 RFO step:  Lambda=-1.16290844D+00 EMin=-1.16290843D+00
 Mixed    0 eigenvectors in step.  Raw Step.Grad=  0.00D+00.
 RFO eigenvector is Hessian eigenvector with negative curvature.
 Taking step of  0.00D+00 in eigenvector direction(s).  Step.Grad= -0.00D+00.
 Linear search not attempted -- first point.
 B after Tr=     0.000000    0.000000    0.000000
         Rot=    1.000000    0.000000    0.000000    0.000000 Ang=   0.00 deg.
 Variable       Old X    -DE/DX   Delta X   Delta X   Delta X     New X
                                 (Linear)    (Quad)   (Total)
    X1       -1.16291  -0.00000   0.00000   0.00000   0.00000  -1.16291
    Y1       -0.08076  -0.00000   0.00000   0.00000   0.00000  -0.08076
    Z1        0.00000  -0.00000   0.00000   0.00000   0.00000   0.00000
         Item               Value     Threshold  Converged?
 Maximum Force            0.000000     0.000450     YES
 RMS     Force            0.000000     0.000300     YES
 Maximum Displacement     0.000000     0.001800     YES
 RMS     Displacement     0.000000     0.001200     YES
 Predicted change in Energy=-0.000000D+00
 GradGradGradGradGradGradGradGradGradGradGradGradGradGradGradGradGradGrad

                          Input orientation:                          
 ---------------------------------------------------------------------
 Center     Atomic      Atomic             Coordinates (Angstroms)
 Number     Number       Type             X           Y           Z
 ---------------------------------------------------------------------
      1         27           0       -0.615385   -0.042735    0.000000
 ---------------------------------------------------------------------
 Stoichiometry    Co(2)
 Framework group  OH[O(Co)]
 Deg. of freedom     0
 Full point group                 OH      NOp  48
 Largest Abelian subgroup         D2H     NOp   8
 Largest concise Abelian subgroup C1      NOp   1
                         Standard orientation:                         
 ---------------------------------------------------------------------
 Center     Atomic      Atomic             Coordinates (Angstroms)
 Number     Number       Type             X           Y           Z
 ---------------------------------------------------------------------
      1         27           0        0.000000    0.000000    0.000000
 ---------------------------------------------------------------------
 Standard basis: 6-31G(d,p) (6D, 7F)
 There are    11 symmetry adapted cartesian basis functions of AG  symmetry.
 There are     2 symmetry adapted cartesian basis functions of B1G symmetry.
 There are     2 symmetry adapted cartesian basis functions of B2G symmetry.
 There are     2 symmetry adapted cartesian basis functions of B3G symmetry.
 There are     1 symmetry adapted cartesian basis functions of AU  symmetry.
 There are     7 symmetry adapted cartesian basis functions of B1U symmetry.
 There are     7 symmetry adapted cartesian basis functions of B2U symmetry.
 There are     7 symmetry adapted cartesian basis functions of B3U symmetry.
 There are    11 symmetry adapted basis functions of AG  symmetry.
 There are     2 symmetry adapted basis functions of B1G symmetry.
 There are     2 symmetry adapted basis functions of B2G symmetry.
 There are     2 symmetry adapted basis functions of B3G symmetry.
 There are     1 symmetry adapted basis functions of AU  symmetry.
 There are     6 symmetry adapted basis functions of B1U symmetry.
 There are     6 symmetry adapted basis functions of B2U symmetry.
 There are     6 symmetry adapted basis functions of B3U symmetry.
    36 basis functions,   104 primitive gaussians,    39 cartesian basis functions
    14 alpha electrons       13 beta electrons
       nuclear repulsion energy         0.0000000000 Hartrees.
 NAtoms=    1 NActive=    1 NUniq=    1 SFac= 1.00D+00 NAtFMM=   60 NAOKFM=F Big=F
 Integral buffers will be    131072 words long.
 Raffenetti 2 integral format.
 Two-electron integral symmetry is turned on.
 One-electron integrals computed using PRISM.
 NBasis=    36 RedAO= T EigKep=  1.52D-03  NBF=    11     2     2     2     1     6     6     6
 NBsUse=    36 1.00D-06 EigRej= -1.00D+00 NBFU=    11     2     2     2     1     6     6     6
 Initial guess from the checkpoint file:  "/home/user/scratch/Gau-86308.chk"
 B after Tr=     0.000000    0.000000    0.000000
         Rot=    1.000000    0.000000    0.000000    0.000000 Ang=   0.00 deg.
 Initial guess orbital symmetries:
 Alpha Orbitals:
       Occupied  (A1G) (A1G) (T1U) (T1U) (T1U) (A1G) (T1U) (T1U)
                 (T1U) (?A) (T2G) (T2G) (T2G) (?A)
       Virtual   (?A) (T1U) (T1U) (T1U) (?A) (T1U) (T1U) (T1U)
                 (?A) (?A) (T2G) (T2G) (?A) (T2G) (?B) (?B) (?B)
                 (?B) (?B) (?B) (A2U) (A1G)
 Beta  Orbitals:
       Occupied  (A1G) (A1G) (T1U) (T1U) (T1U) (?A) (T1U) (T1U)
                 (T1U) (T2G) (T2G) (?A) (T2G)
       Virtual   (?B) (?B) (?B) (?A) (?A) (?A) (?B) (?B) (?B) (?A)
                 (T2G) (T2G) (T2G) (?A) (?A) (A2U) (?C) (?C) (?C)
                 (?C) (?C) (?C) (A1G)
 Initial guess <Sx>= 0.0000 <Sy>= 0.0000 <Sz>= 0.5000 <S**2>= 1.2166 S= 0.7110
 Keep R1 and R2 ints in memory in symmetry-blocked form, NReq=27837821.
 Requested convergence on RMS density matrix=1.00D-08 within  32 cycles.
 Requested convergence on MAX density matrix=1.00D-06.
 Requested convergence on             energy=1.00D-06.
 No special actions if energy rises.
 Density matrix breaks symmetry, PCut= 1.00D-04
 Density has only Abelian symmetry.
 Skip diagonalization as Alpha Fock matrix is already diagonal.
 Skip diagonalization as Beta Fock matrix is already diagonal.
 Density matrix breaks symmetry, PCut= 1.00D-04
 Density has only Abelian symmetry.
 SCF Done:  E(UB3LYP) =  -1382.46057883     A.U. after    1 cycles
            NFock=  1  Conv=0.00D+00     -V/T= 2.0010
 <Sx>= 0.0000 <Sy>= 0.0000 <Sz>= 0.5000 <S**2>= 1.2166 S= 0.7110
 <L.S>= 0.000000000000E+00
 Annihilation of the first spin contaminant:
 S**2 before annihilation     1.2166,   after     0.7505
 QCSCF skips out because SCF is already converged.
 Density matrix has only Abelian symmetry.
 Density matrix has only Abelian symmetry.
 Calling FoFJK, ICntrl=      2127 FMM=F ISym2X=1 I1Cent= 0 IOpClX= 1 NMat=1 NMatS=1 NMatT=0.
 ***** Axes restored to original set *****
 -------------------------------------------------------------------
 Center     Atomic                   Forces (Hartrees/Bohr)
 Number     Number              X              Y              Z
 -------------------------------------------------------------------
      1       27          -0.000000000   -0.000000000   -0.000000000
 -------------------------------------------------------------------
 Cartesian Forces:  Max     0.000000000 RMS     0.000000000

 GradGradGradGradGradGradGradGradGradGradGradGradGradGradGradGradGradGrad
 Berny optimization.
 Using GEDIIS/GDIIS optimizer.
 Search for a local minimum.
 Step number   2 out of a maximum of   20
 All quantities printed in internal units (Hartrees-Bohrs-Radians)
 Mixed Optimization -- En-DIIS/RFO-DIIS
 Swapping is turned off.
 Update second derivatives using D2CorN and points    2
 The second derivative matrix:
                          X1        Y1        Z1
           X1           0.00000
           Y1           0.00000   0.00000
           Z1           0.00000   0.00000   0.00000
 ITU=  0  0
     Eigenvalues --- 
 En-DIIS/RFO-DIIS/Sim-DIIS IScMMF=       -3 using points:     2    1
 RFO step:  Lambda=-5.96046448D-09.
 RFO step:  ModMin= 1 Lambda=-5.96046448D-09 EMin= 9.88131292-324
 Using NR instead of RFO step for point 1.
 RFO step:  ModMin= 1 Lambda=-5.96046448D-09 EMin= 9.88131292-324
 Using NR instead of RFO step for point 2.
 DIIS inversion failure, remove point   2.
 Use linear search instead of GDIIS.
 RFO step:  Lambda=-5.96046448D-09 EMin= 9.88131292-324
 Linear search not attempted -- rms force is less than FSwtch ( 0.00000).
 B after Tr=     0.000000    0.000000    0.000000
         Rot=    1.000000    0.000000    0.000000    0.000000 Ang=   0.00 deg.
 Variable       Old X    -DE/DX   Delta X   Delta X   Delta X     New X
                                 (Linear)    (Quad)   (Total)
    X1       -1.16291  -0.00000   0.00000   0.00000   0.00000  -1.16291
    Y1       -0.08076  -0.00000   0.00000   0.00000   0.00000  -0.08076
    Z1        0.00000  -0.00000   0.00000   0.00000   0.00000   0.00000
         Item               Value     Threshold  Converged?
 Maximum Force            0.000000     0.000450     YES
 RMS     Force            0.000000     0.000300     YES
 Maximum Displacement     0.000000     0.001800     YES
 RMS     Displacement     0.000000     0.001200     YES
 Predicted change in Energy=-0.000000D+00
 Optimization completed.
    -- Stationary point found.
 GradGradGradGradGradGradGradGradGradGradGradGradGradGradGradGradGradGrad

                          Input orientation:                          
 ---------------------------------------------------------------------
 Center     Atomic      Atomic             Coordinates (Angstroms)
 Number     Number       Type             X           Y           Z
 ---------------------------------------------------------------------
      1         27           0       -0.615385   -0.042735    0.000000
 ---------------------------------------------------------------------
 Stoichiometry    Co(2)
 Framework group  OH[O(Co)]
 Deg. of freedom     0
 Full point group                 OH      NOp  48
 Largest Abelian subgroup         D2H     NOp   8
 Largest concise Abelian subgroup C1      NOp   1
                         Standard orientation:                         
 ---------------------------------------------------------------------
 Center     Atomic      Atomic             Coordinates (Angstroms)
 Number     Number       Type             X           Y           Z
 ---------------------------------------------------------------------
      1         27           0        0.000000    0.000000    0.000000
 ---------------------------------------------------------------------
 SCF density gives NOpUse=  8 NOpAll= 48.

 **********************************************************************

            Population analysis using the SCF density.

 **********************************************************************

 Orbital symmetries:
 Alpha Orbitals:
       Occupied  (A1G) (A1G) (T1U) (T1U) (T1U) (A1G) (T1U) (T1U)
                 (T1U) (?A) (T2G) (T2G) (T2G) (?A)
       Virtual   (?A) (T1U) (T1U) (T1U) (?A) (T1U) (T1U) (T1U)
                 (?A) (?A) (T2G) (T2G) (?A) (T2G) (?B) (?B) (?B)
                 (?B) (?B) (?B) (A2U) (A1G)
 Beta  Orbitals:
       Occupied  (A1G) (A1G) (T1U) (T1U) (T1U) (?A) (T1U) (T1U)
                 (T1U) (T2G) (T2G) (?A) (T2G)
       Virtual   (?B) (?B) (?B) (?A) (?A) (?A) (?B) (?B) (?B) (?A)
                 (T2G) (T2G) (T2G) (?A) (?A) (A2U) (?C) (?C) (?C)
                 (?C) (?C) (?C) (A1G)
 Unable to determine electronic state:  an orbital has unidentified symmetry.
 Alpha  occ. eigenvalues -- -277.45292 -32.79365 -28.44204 -28.43768 -28.43403
 Alpha  occ. eigenvalues --   -3.69564  -2.38948  -2.37621  -2.37416  -0.24054
 Alpha  occ. eigenvalues --   -0.22863  -0.22257  -0.20213  -0.19218
 Alpha virt. eigenvalues --   -0.11623  -0.01525  -0.01326  -0.01276   0.12137
 Alpha virt. eigenvalues --    0.21575   0.21617   0.21709   1.03675   1.65324
 Alpha virt. eigenvalues --    1.66054   1.66501   1.66644   1.67692   2.30467
 Alpha virt. eigenvalues --    2.30598   2.30672   2.30922   2.31481   2.31611
 Alpha virt. eigenvalues --    2.31948  25.94355
  Beta  occ. eigenvalues -- -277.45309 -32.76546 -28.42699 -28.41170 -28.40550
  Beta  occ. eigenvalues --   -3.62701  -2.33246  -2.29987  -2.28746  -0.19819
  Beta  occ. eigenvalues --   -0.19346  -0.18288  -0.17753
  Beta virt. eigenvalues --   -0.02361  -0.01573  -0.01565  -0.01387   0.03437
  Beta virt. eigenvalues --    0.12113   0.20867   0.22395   0.22481   1.04973
  Beta virt. eigenvalues --    1.67191   1.67453   1.69170   1.71198   1.75093
  Beta virt. eigenvalues --    2.31628   2.32088   2.32095   2.32806   2.33432
  Beta virt. eigenvalues --    2.36461   2.36575  25.98174
          Condensed to atoms (all electrons):
               1
     1  Co  27.000000
          Atomic-Atomic Spin Densities.
               1
     1  Co   1.000000
 Mulliken charges and spin densities:
               1          2
     1  Co  -0.000000   1.000000
 Sum of Mulliken charges =  -0.00000   1.00000
 Mulliken charges and spin densities with hydrogens summed into heavy atoms:
               1          2
     1  Co  -0.000000   1.000000
 Electronic spatial extent (au):  <R**2>=             35.3966
 Charge=             -0.0000 electrons
 Dipole moment (field-independent basis, Debye):
    X=              0.0000    Y=              0.0000    Z=              0.0000  Tot=              0.0000
 Quadrupole moment (field-independent basis, Debye-Ang):
   XX=            -16.1704   YY=            -16.1934   ZZ=            -15.2458
   XY=              0.0000   XZ=              0.0000   YZ=             -0.0000
 Traceless Quadrupole moment (field-independent basis, Debye-Ang):
   XX=             -0.3005   YY=             -0.3235   ZZ=              0.6240
   XY=              0.0000   XZ=              0.0000   YZ=             -0.0000
 Octapole moment (field-independent basis, Debye-Ang**2):
  XXX=              0.0000  YYY=              0.0000  ZZZ=              0.0000  XYY=              0.0000
  XXY=              0.0000  XXZ=              0.0000  XZZ=              0.0000  YZZ=              0.0000
  YYZ=              0.0000  XYZ=              0.0000
 Hexadecapole moment (field-independent basis, Debye-Ang**3):
 XXXX=            -32.2864 YYYY=            -32.3613 ZZZZ=            -31.2122 XXXY=              0.0000
 XXXZ=              0.0000 YYYX=             -0.0000 YYYZ=             -0.0000 ZZZX=              0.0000
 ZZZY=             -0.0000 XXYY=            -10.8655 XXZZ=            -10.7052 YYZZ=            -10.7265
 XXYZ=             -0.0000 YYXZ=              0.0000 ZZXY=              0.0000
 N-N= 0.000000000000D+00 E-N=-3.298012287204D+03  KE= 1.381062143840D+03
 Symmetry AG   KE= 8.749297395137D+02
 Symmetry B1G  KE= 1.560382878879D+01
 Symmetry B2G  KE= 1.562302493392D+01
 Symmetry B3G  KE= 1.565539553534D+01
 Symmetry AU   KE= 3.270727490172D-37
 Symmetry B1U  KE= 1.530999213758D+02
 Symmetry B2U  KE= 1.530783266829D+02
 Symmetry B3U  KE= 1.530719070100D+02
 Symmetry AG   SP= 1.000000000000D+00
 Symmetry B1G  SP=-4.895172808772D-16
 Symmetry B2G  SP= 2.797241605013D-16
 Symmetry B3G  SP=-1.357421119952D-16
 Symmetry AU   SP=-2.439462680006D-39
 Symmetry B1U  SP= 8.513155458356D-16
 Symmetry B2U  SP= 3.852983470470D-16
 Symmetry B3U  SP= 2.016344990280D-16
                          Isotropic Fermi Contact Couplings
        Atom                 a.u.       MegaHertz       Gauss      10(-4) cm-1
     1  Co(59)            -1.14227   -1208.42819    -431.19723    -403.08825
 --------------------------------------------------------
       Center         ----  Spin Dipole Couplings  ----
                      3XX-RR        3YY-RR        3ZZ-RR
 --------------------------------------------------------
     1   Atom        1.318481      0.537491     -1.855972
 --------------------------------------------------------
                        XY            XZ            YZ
 --------------------------------------------------------
     1   Atom        0.000000      0.000000      0.000000
 --------------------------------------------------------


 ---------------------------------------------------------------------------------
              Anisotropic Spin Dipole Couplings in Principal Axis System
 ---------------------------------------------------------------------------------

       Atom             a.u.   MegaHertz   Gauss  10(-4) cm-1        Axes

              Baa    -1.8560  -234.371   -83.629   -78.178  0.0000  0.0000  1.0000
     1 Co(59) Bbb     0.5375    67.874    24.219    22.640 -0.0000  1.0000  0.0000
              Bcc     1.3185   166.497    59.410    55.537  1.0000  0.0000  0.0000
 

 ---------------------------------------------------------------------------------

 1\1\GINC-VM-QUANTUM2\FOpt\UB3LYP\6-31G(d,p)\Co1(2)\USER\01-Nov-2025\0\
 \# opt freq b3lyp/6-31g(d,p) geom=connectivity scf=xqc\\Title Card Req
 uired\\0,2\Co,-0.61538464,-0.04273504,0.\\Version=ES64L-G16RevA.03\HF=
 -1382.4605788\S2=1.216627\S2-1=0.\S2A=0.750526\RMSD=0.000e+00\RMSF=0.0
 00e+00\Dipole=0.,0.,0.\Quadrupole=0.463953,-0.2405235,-0.2234295,0.,0.
 ,0.\PG=OH [O(Co1)]\\@


 THE MOST INCOMPREHENSIBLE THING ABOUT THE WORLD
 IS THAT IT IS COMPREHENSIBLE. -- A. EINSTEIN
 Job cpu time:       0 days  0 hours  3 minutes  4.8 seconds.
 Elapsed time:       0 days  0 hours  0 minutes  5.9 seconds.
 File lengths (MBytes):  RWF=      6 Int=      0 D2E=      0 Chk=      1 Scr=      1
 Normal termination of Gaussian 16 at Sat Nov  1 23:26:16 2025.
 Link1:  Proceeding to internal job step number  2.
 ----------------------------------------------------------------------
 #N Geom=AllCheck Guess=TCheck SCRF=Check GenChk UB3LYP/6-31G(d,p) Freq
 ----------------------------------------------------------------------
 1/10=4,29=7,30=1,38=1,40=1/1,3;
 2/12=2,40=1/2;
 3/5=1,6=6,7=101,11=2,14=-4,25=1,30=1,70=2,71=2,74=-5,116=2,140=1/1,2,3;
 4/5=101/1;
 5/5=2,8=3,13=1,38=6,98=1/2,8;
 8/6=4,10=90,11=11/1;
 11/6=1,8=1,9=11,15=111,16=1/1,2,10;
 10/6=1/2;
 6/7=2,8=2,9=2,10=2,28=1/1;
 7/8=1,10=1,25=1/1,2,3,16;
 1/10=4,30=1/3;
 99//99;
 Structure from the checkpoint file:  "/home/user/scratch/Gau-86308.chk"
 -------------------
 Title Card Required
 -------------------
 Charge =  0 Multiplicity = 2
 No Z-Matrix found in chk file; cartesian coordinates used.
  Co                                               -0.615384640000     -0.042735040000      0.000000000000
 Recover connectivity data from disk.

 GradGradGradGradGradGradGradGradGradGradGradGradGradGradGradGradGradGrad
 Berny optimization.
 Initialization pass.
 Trust Radius=3.00D-01 FncErr=1.00D-07 GrdErr=1.00D-07 EigMax=2.50D+02 EigMin=1.00D-04
 Number of steps in this run=      2 maximum allowed number of steps=      2.
 GradGradGradGradGradGradGradGradGradGradGradGradGradGradGradGradGradGrad

                          Input orientation:                          
 ---------------------------------------------------------------------
 Center     Atomic      Atomic             Coordinates (Angstroms)
 Number     Number       Type             X           Y           Z
 ---------------------------------------------------------------------
      1         27           0       -0.615385   -0.042735    0.000000
 ---------------------------------------------------------------------
 Stoichiometry    Co(2)
 Framework group  OH[O(Co)]
 Deg. of freedom     0
 Full point group                 OH      NOp  48
 Largest Abelian subgroup         D2H     NOp   8
 Largest concise Abelian subgroup C1      NOp   1
                         Standard orientation:                         
 ---------------------------------------------------------------------
 Center     Atomic      Atomic             Coordinates (Angstroms)
 Number     Number       Type             X           Y           Z
 ---------------------------------------------------------------------
      1         27           0        0.000000    0.000000    0.000000
 ---------------------------------------------------------------------
 Standard basis: 6-31G(d,p) (6D, 7F)
 There are    11 symmetry adapted cartesian basis functions of AG  symmetry.
 There are     2 symmetry adapted cartesian basis functions of B1G symmetry.
 There are     2 symmetry adapted cartesian basis functions of B2G symmetry.
 There are     2 symmetry adapted cartesian basis functions of B3G symmetry.
 There are     1 symmetry adapted cartesian basis functions of AU  symmetry.
 There are     7 symmetry adapted cartesian basis functions of B1U symmetry.
 There are     7 symmetry adapted cartesian basis functions of B2U symmetry.
 There are     7 symmetry adapted cartesian basis functions of B3U symmetry.
 There are    11 symmetry adapted basis functions of AG  symmetry.
 There are     2 symmetry adapted basis functions of B1G symmetry.
 There are     2 symmetry adapted basis functions of B2G symmetry.
 There are     2 symmetry adapted basis functions of B3G symmetry.
 There are     1 symmetry adapted basis functions of AU  symmetry.
 There are     6 symmetry adapted basis functions of B1U symmetry.
 There are     6 symmetry adapted basis functions of B2U symmetry.
 There are     6 symmetry adapted basis functions of B3U symmetry.
    36 basis functions,   104 primitive gaussians,    39 cartesian basis functions
    14 alpha electrons       13 beta electrons
       nuclear repulsion energy         0.0000000000 Hartrees.
 NAtoms=    1 NActive=    1 NUniq=    1 SFac= 1.00D+00 NAtFMM=   60 NAOKFM=F Big=F
 Integral buffers will be    131072 words long.
 Raffenetti 2 integral format.
 Two-electron integral symmetry is turned on.
 One-electron integrals computed using PRISM.
 NBasis=    36 RedAO= T EigKep=  1.52D-03  NBF=    11     2     2     2     1     6     6     6
 NBsUse=    36 1.00D-06 EigRej= -1.00D+00 NBFU=    11     2     2     2     1     6     6     6
 Initial guess from the checkpoint file:  "/home/user/scratch/Gau-86308.chk"
 B after Tr=     0.000000    0.000000    0.000000
         Rot=    1.000000    0.000000    0.000000    0.000000 Ang=   0.00 deg.
 Initial guess orbital symmetries:
 Alpha Orbitals:
       Occupied  (A1G) (A1G) (T1U) (T1U) (T1U) (A1G) (T1U) (T1U)
                 (T1U) (?A) (T2G) (T2G) (T2G) (?A)
       Virtual   (?A) (T1U) (T1U) (T1U) (?A) (T1U) (T1U) (T1U)
                 (?A) (?A) (T2G) (T2G) (?A) (T2G) (?B) (?B) (?B)
                 (?B) (?B) (?B) (A2U) (A1G)
 Beta  Orbitals:
       Occupied  (A1G) (A1G) (T1U) (T1U) (T1U) (?A) (T1U) (T1U)
                 (T1U) (T2G) (T2G) (?A) (T2G)
       Virtual   (?B) (?B) (?B) (?A) (?A) (?A) (?B) (?B) (?B) (?A)
                 (T2G) (T2G) (T2G) (?A) (?A) (A2U) (?C) (?C) (?C)
                 (?C) (?C) (?C) (A1G)
 Initial guess <Sx>= 0.0000 <Sy>= 0.0000 <Sz>= 0.5000 <S**2>= 1.2166 S= 0.7110
 Keep R1 and R2 ints in memory in symmetry-blocked form, NReq=27837821.
 Requested convergence on RMS density matrix=1.00D-08 within  32 cycles.
 Requested convergence on MAX density matrix=1.00D-06.
 Requested convergence on             energy=1.00D-06.
 No special actions if energy rises.
 Density matrix breaks symmetry, PCut= 1.00D-04
 Density has only Abelian symmetry.
 Skip diagonalization as Alpha Fock matrix is already diagonal.
 Skip diagonalization as Beta Fock matrix is already diagonal.
 Density matrix breaks symmetry, PCut= 1.00D-04
 Density has only Abelian symmetry.
 SCF Done:  E(UB3LYP) =  -1382.46057883     A.U. after    1 cycles
            NFock=  1  Conv=0.00D+00     -V/T= 2.0010
 <Sx>= 0.0000 <Sy>= 0.0000 <Sz>= 0.5000 <S**2>= 1.2166 S= 0.7110
 <L.S>= 0.000000000000E+00
 Annihilation of the first spin contaminant:
 S**2 before annihilation     1.2166,   after     0.7505
 QCSCF skips out because SCF is already converged.
 DoSCS=F DFT=T ScalE2(SS,OS)=  1.000000  1.000000
 Range of M.O.s used for correlation:     1    36
 NBasis=    36 NAE=    14 NBE=    13 NFC=     0 NFV=     0
 NROrb=     36 NOA=    14 NOB=    13 NVA=    22 NVB=    23

 **** Warning!!: The largest alpha MO coefficient is  0.20173481D+02


 **** Warning!!: The smallest alpha delta epsilon is  0.75947319D-01


 **** Warning!!: The largest beta MO coefficient is  0.20174118D+02

 Symmetrizing basis deriv contribution to polar:
 IMax=3 JMax=2 DiffMx= 0.00D+00
 G2DrvN: will do     2 centers at a time, making    1 passes.
 Calling FoFCou, ICntrl=  3107 FMM=F I1Cent=   0 AccDes= 0.00D+00.
 End of G2Drv F.D. properties file   721 does not exist.
 End of G2Drv F.D. properties file   722 does not exist.
 End of G2Drv F.D. properties file   788 does not exist.
          IDoAtm=1
          Differentiating once with respect to electric field.
                with respect to dipole field.
          Differentiating once with respect to nuclear coordinates.
 Keep R1 and R2 ints in memory in symmetry-blocked form, NReq=27726851.
 CalDSu exits because no D1Ps are significant.
          There are     6 degrees of freedom in the 1st order CPHF.  IDoFFX=6 NUNeed=     3.
      3 vectors produced by pass  0 Test12= 1.01D-14 1.67D-08 XBig12= 2.23D+02 1.26D+01.
 AX will form     3 AO Fock derivatives at one time.
      3 vectors produced by pass  1 Test12= 1.01D-14 1.67D-08 XBig12= 1.20D+01 1.85D+00.
      3 vectors produced by pass  2 Test12= 1.01D-14 1.67D-08 XBig12= 3.84D-01 3.21D-01.
      3 vectors produced by pass  3 Test12= 1.01D-14 1.67D-08 XBig12= 1.88D-02 6.90D-02.
      3 vectors produced by pass  4 Test12= 1.01D-14 1.67D-08 XBig12= 5.51D-04 1.22D-02.
      3 vectors produced by pass  5 Test12= 1.01D-14 1.67D-08 XBig12= 9.05D-06 1.25D-03.
      3 vectors produced by pass  6 Test12= 1.01D-14 1.67D-08 XBig12= 1.73D-07 2.15D-04.
      3 vectors produced by pass  7 Test12= 1.01D-14 1.67D-08 XBig12= 2.84D-10 8.15D-06.
      3 vectors produced by pass  8 Test12= 1.01D-14 1.67D-08 XBig12= 3.05D-12 9.91D-07.
      3 vectors produced by pass  9 Test12= 1.01D-14 1.67D-08 XBig12= 3.15D-14 8.17D-08.
      1 vectors produced by pass 10 Test12= 1.01D-14 1.67D-08 XBig12= 1.71D-15 3.58D-08.
      1 vectors produced by pass 11 Test12= 1.01D-14 1.67D-08 XBig12= 2.44D-15 2.14D-08.
 InvSVY:  IOpt=1 It=  1 EMax= 2.22D-16
 Solved reduced A of dimension    32 with     3 vectors.
 Isotropic polarizability for W=    0.000000       63.54 Bohr**3.
 End of Minotr F.D. properties file   721 does not exist.
 End of Minotr F.D. properties file   722 does not exist.
 End of Minotr F.D. properties file   788 does not exist.
 SCF density gives NOpUse=  8 NOpAll= 48.

 **********************************************************************

            Population analysis using the SCF density.

 **********************************************************************

 Orbital symmetries:
 Alpha Orbitals:
       Occupied  (A1G) (A1G) (T1U) (T1U) (T1U) (A1G) (T1U) (T1U)
                 (T1U) (?A) (T2G) (T2G) (T2G) (?A)
       Virtual   (?A) (T1U) (T1U) (T1U) (?A) (T1U) (T1U) (T1U)
                 (?A) (?A) (T2G) (T2G) (?A) (T2G) (?B) (?B) (?B)
                 (?B) (?B) (?B) (A2U) (A1G)
 Beta  Orbitals:
       Occupied  (A1G) (A1G) (T1U) (T1U) (T1U) (?A) (T1U) (T1U)
                 (T1U) (T2G) (T2G) (?A) (T2G)
       Virtual   (?B) (?B) (?B) (?A) (?A) (?A) (?B) (?B) (?B) (?A)
                 (T2G) (T2G) (T2G) (?A) (?A) (A2U) (?C) (?C) (?C)
                 (?C) (?C) (?C) (A1G)
 Unable to determine electronic state:  an orbital has unidentified symmetry.
 Alpha  occ. eigenvalues -- -277.45292 -32.79365 -28.44204 -28.43768 -28.43403
 Alpha  occ. eigenvalues --   -3.69564  -2.38948  -2.37621  -2.37416  -0.24054
 Alpha  occ. eigenvalues --   -0.22863  -0.22257  -0.20213  -0.19218
 Alpha virt. eigenvalues --   -0.11623  -0.01525  -0.01326  -0.01276   0.12137
 Alpha virt. eigenvalues --    0.21575   0.21617   0.21709   1.03675   1.65324
 Alpha virt. eigenvalues --    1.66054   1.66501   1.66644   1.67692   2.30467
 Alpha virt. eigenvalues --    2.30598   2.30672   2.30922   2.31481   2.31611
 Alpha virt. eigenvalues --    2.31948  25.94355
  Beta  occ. eigenvalues -- -277.45309 -32.76546 -28.42699 -28.41170 -28.40550
  Beta  occ. eigenvalues --   -3.62701  -2.33246  -2.29987  -2.28746  -0.19819
  Beta  occ. eigenvalues --   -0.19346  -0.18288  -0.17753
  Beta virt. eigenvalues --   -0.02361  -0.01573  -0.01565  -0.01387   0.03437
  Beta virt. eigenvalues --    0.12113   0.20867   0.22395   0.22481   1.04973
  Beta virt. eigenvalues --    1.67191   1.67453   1.69170   1.71198   1.75093
  Beta virt. eigenvalues --    2.31628   2.32088   2.32095   2.32806   2.33432
  Beta virt. eigenvalues --    2.36461   2.36575  25.98174
          Condensed to atoms (all electrons):
               1
     1  Co  27.000000
          Atomic-Atomic Spin Densities.
               1
     1  Co   1.000000
 Mulliken charges and spin densities:
               1          2
     1  Co  -0.000000   1.000000
 Sum of Mulliken charges =  -0.00000   1.00000
 Mulliken charges and spin densities with hydrogens summed into heavy atoms:
               1          2
     1  Co  -0.000000   1.000000
 APT charges:
               1
     1  Co   0.000000
 Sum of APT charges =   0.00000
 APT charges with hydrogens summed into heavy atoms:
               1
     1  Co   0.000000
 Electronic spatial extent (au):  <R**2>=             35.3966
 Charge=             -0.0000 electrons
 Dipole moment (field-independent basis, Debye):
    X=              0.0000    Y=              0.0000    Z=              0.0000  Tot=              0.0000
 Quadrupole moment (field-independent basis, Debye-Ang):
   XX=            -16.1704   YY=            -16.1934   ZZ=            -15.2458
   XY=              0.0000   XZ=              0.0000   YZ=             -0.0000
 Traceless Quadrupole moment (field-independent basis, Debye-Ang):
   XX=             -0.3005   YY=             -0.3235   ZZ=              0.6240
   XY=              0.0000   XZ=              0.0000   YZ=             -0.0000
 Octapole moment (field-independent basis, Debye-Ang**2):
  XXX=              0.0000  YYY=              0.0000  ZZZ=              0.0000  XYY=              0.0000
  XXY=              0.0000  XXZ=              0.0000  XZZ=              0.0000  YZZ=              0.0000
  YYZ=              0.0000  XYZ=              0.0000
 Hexadecapole moment (field-independent basis, Debye-Ang**3):
 XXXX=            -32.2864 YYYY=            -32.3613 ZZZZ=            -31.2122 XXXY=              0.0000
 XXXZ=              0.0000 YYYX=             -0.0000 YYYZ=             -0.0000 ZZZX=              0.0000
 ZZZY=             -0.0000 XXYY=            -10.8655 XXZZ=            -10.7052 YYZZ=            -10.7265
 XXYZ=             -0.0000 YYXZ=              0.0000 ZZXY=              0.0000
 N-N= 0.000000000000D+00 E-N=-3.298012287204D+03  KE= 1.381062143840D+03
 Symmetry AG   KE= 8.749297395137D+02
 Symmetry B1G  KE= 1.560382878879D+01
 Symmetry B2G  KE= 1.562302493392D+01
 Symmetry B3G  KE= 1.565539553534D+01
 Symmetry AU   KE= 3.270727490172D-37
 Symmetry B1U  KE= 1.530999213758D+02
 Symmetry B2U  KE= 1.530783266829D+02
 Symmetry B3U  KE= 1.530719070100D+02
 Symmetry AG   SP= 1.000000000000D+00
 Symmetry B1G  SP=-6.945399116942D-16
 Symmetry B2G  SP=-2.268150944840D-16
 Symmetry B3G  SP=-4.653395724308D-16
 Symmetry AU   SP=-2.439462680006D-39
 Symmetry B1U  SP=-9.464000763626D-16
 Symmetry B2U  SP=-1.331332505176D-15
 Symmetry B3U  SP= 1.326467147927D-15
  Exact polarizability:  62.705   0.000  62.746  -0.000  -0.000  65.156
 Approx polarizability:  77.140  -0.000  77.849  -0.000  -0.000  75.715
                          Isotropic Fermi Contact Couplings
        Atom                 a.u.       MegaHertz       Gauss      10(-4) cm-1
     1  Co(59)            -1.14227   -1208.42819    -431.19723    -403.08825
 --------------------------------------------------------
       Center         ----  Spin Dipole Couplings  ----
                      3XX-RR        3YY-RR        3ZZ-RR
 --------------------------------------------------------
     1   Atom        1.318481      0.537491     -1.855972
 --------------------------------------------------------
                        XY            XZ            YZ
 --------------------------------------------------------
     1   Atom        0.000000      0.000000      0.000000
 --------------------------------------------------------


 ---------------------------------------------------------------------------------
              Anisotropic Spin Dipole Couplings in Principal Axis System
 ---------------------------------------------------------------------------------

       Atom             a.u.   MegaHertz   Gauss  10(-4) cm-1        Axes

              Baa    -1.8560  -234.371   -83.629   -78.178  0.0000  0.0000  1.0000
     1 Co(59) Bbb     0.5375    67.874    24.219    22.640 -0.0000  1.0000  0.0000
              Bcc     1.3185   166.497    59.410    55.537  1.0000  0.0000  0.0000
 

 ---------------------------------------------------------------------------------

 Density matrix has only Abelian symmetry.
 Density matrix has only Abelian symmetry.
 Calling FoFJK, ICntrl=    100127 FMM=F ISym2X=1 I1Cent= 0 IOpClX= 1 NMat=1 NMatS=1 NMatT=0.
 Full mass-weighted force constant matrix:
 Low frequencies ---    0.0003    0.0003    0.0003
 Diagonal vibrational polarizability:
        0.0000000       0.0000000       0.0000000
 Harmonic frequencies (cm**-1), IR intensities (KM/Mole), Raman scattering
 activities (A**4/AMU), depolarization ratios for plane and unpolarized
 incident light, reduced masses (AMU), force constants (mDyne/A),
 and normal coordinates:

 -------------------
 - Thermochemistry -
 -------------------
 Temperature   298.150 Kelvin.  Pressure   1.00000 Atm.
 Atom     1 has atomic number 27 and mass  58.93320
 Molecular mass:    58.93320 amu.
 Zero-point vibrational energy          0.0 (Joules/Mol)
                                    0.00000 (Kcal/Mol)
 Vibrational temperatures: 
          (Kelvin)
 
 Zero-point correction=                           0.000000 (Hartree/Particle)
 Thermal correction to Energy=                    0.001416
 Thermal correction to Enthalpy=                  0.002360
 Thermal correction to Gibbs Free Energy=        -0.016416
 Sum of electronic and zero-point Energies=          -1382.460579
 Sum of electronic and thermal Energies=             -1382.459163
 Sum of electronic and thermal Enthalpies=           -1382.458218
 Sum of electronic and thermal Free Energies=        -1382.476995
 
                     E (Thermal)             CV                S
                      KCal/Mol        Cal/Mol-Kelvin    Cal/Mol-Kelvin
 Total                    0.889              2.981             39.519
 Electronic               0.000              0.000              1.377
 Translational            0.889              2.981             38.142
 Rotational               0.000              0.000              0.000
 Vibrational              0.000              0.000              0.000
                       Q            Log10(Q)             Ln(Q)
 Total Bot       0.355651D+08          7.551024         17.386875
 Total V=0       0.355651D+08          7.551024         17.386875
 Vib (Bot)       0.100000D+01          0.000000          0.000000
 Vib (V=0)       0.100000D+01          0.000000          0.000000
 Electronic      0.200000D+01          0.301030          0.693147
 Translational   0.177825D+08          7.249994         16.693728
 Rotational      0.100000D+01          0.000000          0.000000
 ***** Axes restored to original set *****
 -------------------------------------------------------------------
 Center     Atomic                   Forces (Hartrees/Bohr)
 Number     Number              X              Y              Z
 -------------------------------------------------------------------
      1       27          -0.000000000   -0.000000000   -0.000000000
 -------------------------------------------------------------------
 Cartesian Forces:  Max     0.000000000 RMS     0.000000000

 GradGradGradGradGradGradGradGradGradGradGradGradGradGradGradGradGradGrad
 Berny optimization.
 Search for a local minimum.
 Step number   1 out of a maximum of    2
 All quantities printed in internal units (Hartrees-Bohrs-Radians)
 Second derivative matrix not updated -- analytic derivatives used.
 The second derivative matrix:
                          X1        Y1        Z1
           X1           0.00000
           Y1          -0.00000   0.00000
           Z1          -0.00000  -0.00000   0.00000
 ITU=  0
     Eigenvalues --- 
 Angle between quadratic step and forces=  90.00 degrees.
 Linear search not attempted -- first point.
 B after Tr=     0.000000    0.000000    0.000000
         Rot=    1.000000    0.000000    0.000000    0.000000 Ang=   0.00 deg.
 Variable       Old X    -DE/DX   Delta X   Delta X   Delta X     New X
                                 (Linear)    (Quad)   (Total)
    X1       -1.16291  -0.00000   0.00000   0.00000   0.00000  -1.16291
    Y1       -0.08076  -0.00000   0.00000   0.00000   0.00000  -0.08076
    Z1        0.00000  -0.00000   0.00000   0.00000   0.00000   0.00000
         Item               Value     Threshold  Converged?
 Maximum Force            0.000000     0.000450     YES
 RMS     Force            0.000000     0.000300     YES
 Maximum Displacement     0.000000     0.001800     YES
 RMS     Displacement     0.000000     0.001200     YES
 Predicted change in Energy=-0.000000D+00
 Optimization completed.
    -- Stationary point found.
 GradGradGradGradGradGradGradGradGradGradGradGradGradGradGradGradGradGrad

 Dipole is zero, so no output in dipole orientation.

 ----------------------------------------------------------------------

 Electric dipole moment (input orientation):
 (Debye = 10**-18 statcoulomb cm , SI units = C m)
                  (au)            (Debye)         (10**-30 SI)
   Tot        0.000000D+00      0.000000D+00      0.000000D+00
   x          0.000000D+00      0.000000D+00      0.000000D+00
   y          0.000000D+00      0.000000D+00      0.000000D+00
   z          0.000000D+00      0.000000D+00      0.000000D+00

 Dipole polarizability, Alpha (input orientation).
 (esu units = cm**3 , SI units = C**2 m**2 J**-1)
 Alpha(0;0):
               (au)            (10**-24 esu)      (10**-40 SI)
   iso        0.635355D+02      0.941500D+01      0.104756D+02
   aniso      0.243029D+01      0.360131D+00      0.400700D+00
   xx         0.651556D+02      0.965506D+01      0.107427D+02
   yx         0.000000D+00      0.000000D+00      0.000000D+00
   yy         0.627461D+02      0.929802D+01      0.103454D+02
   zx         0.000000D+00      0.000000D+00      0.000000D+00
   zy         0.000000D+00      0.000000D+00      0.000000D+00
   zz         0.627049D+02      0.929191D+01      0.103386D+02

 ----------------------------------------------------------------------
 1\1\GINC-VM-QUANTUM2\Freq\UB3LYP\6-31G(d,p)\Co1(2)\USER\01-Nov-2025\0\
 \#N Geom=AllCheck Guess=TCheck SCRF=Check GenChk UB3LYP/6-31G(d,p) Fre
 q\\Title Card Required\\0,2\Co,-0.61538464,-0.04273504,0.\\Version=ES6
 4L-G16RevA.03\HF=-1382.4605788\S2=1.216627\S2-1=0.\S2A=0.750526\RMSD=0
 .000e+00\RMSF=0.000e+00\Thermal=0.0014163\Dipole=0.,0.,0.\DipoleDeriv=
 0.,0.,0.,0.,0.,0.,0.,0.,0.\Polar=65.1555545,0.,62.7461415,0.,0.,62.704
 9176\Quadrupole=0.463953,-0.2405235,-0.2234295,0.,0.,0.\PG=OH [O(Co1)]
 \NImag=0\\0.,0.,0.,0.,0.,0.\\0.,0.,0.\\\@


 CONFIDENCE: THAT QUIET ASSURED FEELING YOU HAVE
 JUST BEFORE YOU FALL FLAT ON YOUR FACE.
 Job cpu time:       0 days  0 hours  2 minutes 43.8 seconds.
 Elapsed time:       0 days  0 hours  0 minutes  5.2 seconds.
 File lengths (MBytes):  RWF=      6 Int=      0 D2E=      0 Chk=      1 Scr=      1
 Normal termination of Gaussian 16 at Sat Nov  1 23:26:21 2025.
