%mem=12GB
%nprocshared=32
# opt freq b3lyp/6-31g(d,p) geom=connectivity scf=xqc scrf=(solvent=water)

Title Card Required

0 4
 C                 -1.08371800    4.75826100   -1.48458400
 C                  0.98413400    3.54503300   -1.02937000
 C                  1.02669600    5.97112100   -1.32871900
 C                  5.80990000    2.39497200   -0.60916200
 C                  3.70388100    3.61300600   -0.79236400
 C                  3.68873700    1.18114700   -0.61694500
 C                  5.11664700    1.14409400   -0.56909200
 C                  3.01013000    2.36566800   -0.72697900
 C                  5.13232800    3.57858600   -0.71617600
 C                 -0.32785900    5.97234400   -1.51962300
 C                  1.74181400    4.75600800   -1.08583200
 C                 -0.37228100    3.54689200   -1.22026100
 N                  3.07939900    4.79391000   -0.94997500
 N                  1.60573000    2.30417100   -0.79724400
 N                  2.92794100   -0.00052400   -0.58196800
 N                 -1.03654900    2.30711600   -1.17114600
 N                  5.82074100   -0.00120400   -0.52196900
 N                 -2.40661700    4.79736600   -1.72552800
 C                  3.00902700   -2.36674400   -0.72729200
 C                  5.13064200   -3.58064900   -0.71672400
 C                  5.11611000   -1.14617400   -0.56926200
 C                  3.68818300   -1.18254600   -0.61709000
 C                  5.80877000   -2.39736800   -0.60950900
 C                  3.70218700   -3.61439400   -0.79289700
 N                  3.07714800   -4.79498900   -0.95074100
 N                  1.60466400   -2.30459600   -0.79756200
 C                 -2.40197600    2.36780700   -1.50336900
 C                 -4.44282700    3.58193500   -2.08006900
 C                 -4.46860300    1.14640000   -1.94227300
 C                 -3.08259000    1.18279000   -1.59474800
 C                 -5.12292500    2.39785100   -2.16984000
 C                 -3.05043900    3.61660300   -1.75409700
 N                 -5.15934600    0.00151700   -2.09140900
 N                 -2.35990400    0.00082100   -1.35223400
 C                 -5.12404700   -2.39483400   -2.17012900
 C                 -3.05211200   -3.61461600   -1.75471600
 C                 -3.08313500   -1.18080900   -1.59497100
 C                  1.73959900   -4.75643300   -1.08664700
 C                 -0.37391300   -3.54627400   -1.22094400
 C                 -0.33064600   -5.97172400   -1.52064200
 C                  1.02390000   -5.97118000   -1.32971100
 C                 -1.08593800   -4.75728300   -1.48542000
 C                  0.98248000   -3.54511600   -1.02999200
 C                 -4.46911400   -1.14373000   -1.94245600
 C                 -2.40304800   -2.36616900   -1.50385400
 C                 -4.44449800   -3.57925400   -2.08057500
 N                 -1.03755800   -2.30619900   -1.17170000
 N                 -2.40883900   -4.79571000   -1.72634600
 H                  6.89196300   -2.36007700   -0.57230000
 H                  5.64686900   -4.53299600   -0.76814600
 H                  6.89307500    2.35716300   -0.57195600
 H                  5.64899400    4.53070200   -0.76743900
 H                  1.61131600    6.88353200   -1.37154500
 H                 -0.87619600    6.88574400   -1.72246000
 H                 -4.92531400    4.53426600   -2.27107200
 H                 -6.17358300    2.36090900   -2.43626600
 H                 -6.17471000   -2.35737000   -2.43646200
 H                 -4.92746200   -4.53133000   -2.27164200
 H                 -0.87943600   -6.88482600   -1.72359700
 H                  1.60810100   -6.88385300   -1.37266600
 C                 -1.49731400    0.00051500   -0.13567000
 C                 -0.68541600   -1.42466500   -0.02277100
 C                  0.94962000   -1.43301000    0.21540400
 C                  1.76536500   -0.00033200    0.34250200
 C                  0.95038400    1.43263300    0.21564600
 C                 -0.68476900    1.42523500   -0.02242300
 C                 -1.73985800    0.81693600    3.32745300
 C                 -1.74026400   -0.81723300    3.32713800
 C                 -0.42994400   -1.46629700    3.44954500
 C                  0.75916600   -0.72088200    3.62547700
 C                  0.75951600    0.71897400    3.62565700
 C                 -0.42918000    1.46506700    3.44981800
 C                 -1.20752300   -1.96571300    1.33275300
 C                 -2.19207400   -1.15787500    1.95143000
 C                 -0.21647700   -2.28937300    2.23824400
 C                  1.05264700   -1.98811500    1.66554300
 C                 -2.32298500    0.00039300    1.18321600
 C                 -2.19150000    1.15845500    1.95175600
 C                 -0.21516100    2.28838700    2.23875200
 C                 -1.20671300    1.96598600    1.33326600
 C                  1.05374200    1.98732700    1.66596800
 C                  1.72116100    1.14058600    2.53270000
 C                  1.72059200   -1.14251400    2.53245600
 C                  2.16679500   -0.00077900    1.84820900
 Co                -2.86307800   -0.00026500    4.62577300

 1 10 1.5 12 1.5 18 1.5
 2 11 1.5 12 2.0 14 1.0
 3 10 2.0 11 1.5 53 1.0
 4 7 1.5 9 2.0 51 1.0
 5 8 1.5 9 1.5 13 1.5
 6 7 1.5 8 2.0 15 1.0
 7 17 1.5
 8 14 1.0
 9 52 1.0
 10 54 1.0
 11 13 1.5
 12 16 1.0
 13
 14 65 1.0
 15 22 1.0 64 1.0
 16 27 1.0 66 1.0
 17 21 1.5
 18 32 1.5
 19 22 2.0 24 1.5 26 1.0
 20 23 2.0 24 1.5 50 1.0
 21 22 1.5 23 1.5
 22
 23 49 1.0
 24 25 1.5
 25 38 1.5
 26 43 1.0 63 1.0
 27 30 2.0 32 1.5
 28 31 2.0 32 1.5 55 1.0
 29 30 1.5 31 1.5 33 1.5
 30 34 1.0
 31 56 1.0
 32
 33 44 1.5
 34 37 1.0 61 1.0
 35 44 1.5 46 2.0 57 1.0
 36 45 1.5 46 1.5 48 1.5
 37 44 1.5 45 2.0
 38 41 1.5 43 1.5
 39 42 1.5 43 2.0 47 1.0
 40 41 2.0 42 1.5 59 1.0
 41 60 1.0
 42 48 1.5
 43
 44
 45 47 1.0
 46 58 1.0
 47 62 1.0
 48
 49
 50
 51
 52
 53
 54
 55
 56
 57
 58
 59
 60
 61 77 1.0
 62 73 1.0
 63 76 1.0
 64 84 1.0
 65 81 1.0
 66 80 1.0
 67 72 1.0 78 1.0 85 1.0
 68 69 1.0 74 1.0 85 1.0
 69 70 1.5 75 1.0
 70 71 1.5 83 1.0
 71 72 1.5 82 1.0
 72 79 1.0
 73 74 1.5 75 2.0
 74 77 1.5
 75 76 1.5
 76 83 2.0
 77 78 1.5
 78 80 1.5
 79 80 2.0 81 1.5
 80
 81 82 2.0
 82 84 1.5
 83 84 1.5
 84
 85

