%mem=12GB
%nprocshared=32
# opt freq ub3lyp/6-31g(d,p) geom=connectivity scf=xqc scrf=(solvent=water)

Title Card Required

0 2
 C                 -1.06963300    4.76004200   -1.50498800
 C                  0.99524500    3.54707900   -1.03706900
 C                  1.03958700    5.97318000   -1.33341400
 C                  5.81845600    2.39400800   -0.59953100
 C                  3.71384800    3.61339400   -0.78781000
 C                  3.69691400    1.18077800   -0.61791700
 C                  5.12464200    1.14335400   -0.56416700
 C                  3.01953200    2.36595700   -0.72729200
 C                  5.14190200    3.57819900   -0.70663500
 C                 -0.31377300    5.97432500   -1.53312300
 C                  1.75350700    4.75788300   -1.08794100
 C                 -0.35955700    3.54874300   -1.23720400
 N                  3.09036900    4.79484400   -0.94548800
 N                  1.61530500    2.30584400   -0.80239800
 N                  2.93514600   -0.00096800   -0.58839000
 N                 -1.02324900    2.30826300   -1.19414300
 N                  5.82835900   -0.00201600   -0.51489100
 N                 -2.39070200    4.79846900   -1.75557300
 C                  3.01784900   -2.36798600   -0.72737000
 C                  5.13939600   -3.58171100   -0.70671300
 C                  5.12384100   -1.14684900   -0.56409800
 C                  3.69606500   -1.18328900   -0.61785800
 C                  5.81677600   -2.39802000   -0.59951000
 C                  3.71129600   -3.61592700   -0.78796200
 N                  3.08701700   -4.79690500   -0.94576200
 N                  1.61366100   -2.30693700   -0.80245500
 C                 -2.38661400    2.36848600   -1.53573600
 C                 -4.42343400    3.58244600   -2.12681700
 C                 -4.44905500    1.14676300   -1.99171800
 C                 -3.06581100    1.18327700   -1.63331100
 C                 -5.10214300    2.39812300   -2.22317200
 C                 -3.03363400    3.61739300   -1.79020000
 N                 -5.13844000    0.00192700   -2.14677000
 N                 -2.34448500    0.00085800   -1.38644300
 C                 -5.10389900   -2.39429800   -2.22336400
 C                 -3.03623800   -3.61510400   -1.79047100
 C                 -3.06668900   -1.18097600   -1.63342300
 C                  1.75012600   -4.75904300   -1.08820200
 C                 -0.36212800   -3.54846800   -1.23730500
 C                 -0.31800500   -5.97398200   -1.53361000
 C                  1.03537700   -5.97379300   -1.33386700
 C                 -1.07302000   -4.75919900   -1.50531800
 C                  0.99272600   -3.54774000   -1.03716500
 C                 -4.44990800   -1.14339200   -1.99184900
 C                 -2.38835100   -2.36666900   -1.53577000
 C                 -4.42603300   -3.57910200   -2.12711700
 N                 -1.02497600   -2.30756500   -1.19394200
 N                 -2.39416600   -4.79661900   -1.75594300
 H                  6.89979800   -2.36037000   -0.55815600
 H                  5.65605200   -4.53401600   -0.75426600
 H                  6.90145100    2.35560200   -0.55818800
 H                  5.65923800    4.53013600   -0.75416100
 H                  1.62415700    6.88582800   -1.37150900
 H                 -0.86086600    6.88793100   -1.73835100
 H                 -4.90498000    4.53473800   -2.32028900
 H                 -6.15074600    2.36090200   -2.49746500
 H                 -6.15247000   -2.35629700   -2.49767000
 H                 -4.90824400   -4.53103900   -2.32068000
 H                 -0.86572700   -6.88718100   -1.73896700
 H                  1.61932600   -6.88683300   -1.37207700
 C                 -1.49230100    0.00013800   -0.16407200
 C                 -0.68046400   -1.42741400   -0.04313700
 C                  0.95300900   -1.43321500    0.20430900
 C                  1.76889000   -0.00054400    0.33216500
 C                  0.95397600    1.43236600    0.20404900
 C                 -0.67951900    1.42725800   -0.04383900
 C                 -1.71058800    0.78142000    3.27459800
 C                 -1.71117400   -0.78007400    3.27494100
 C                 -0.42733600   -1.45474500    3.42678000
 C                  0.77097800   -0.71773100    3.60901600
 C                  0.77132500    0.71792400    3.60886000
 C                 -0.42660100    1.45556000    3.42656000
 C                 -1.20800400   -1.96867700    1.31263700
 C                 -2.19146700   -1.15529900    1.92231600
 C                 -0.21853500   -2.29178800    2.22398500
 C                  1.04982100   -1.98467400    1.65631200
 C                 -2.32291000    0.00036900    1.14947200
 C                 -2.19065900    1.15648800    1.92199700
 C                 -0.21727600    2.29230000    2.22340600
 C                 -1.20670000    1.96872900    1.31201300
 C                  1.05079800    1.98380800    1.65587700
 C                  1.73084600    1.14449400    2.52322800
 C                  1.72994600   -1.14491800    2.52334800
 C                  2.16813100   -0.00056800    1.83746500
 Cu                -2.82875800    0.00040300    4.58439900

 1 10 1.5 12 1.5 18 1.5
 2 11 1.5 12 2.0 14 1.0
 3 10 2.0 11 1.5 53 1.0
 4 7 1.5 9 2.0 51 1.0
 5 8 1.5 9 1.5 13 1.5
 6 7 1.5 8 2.0 15 1.0
 7 17 1.5
 8 14 1.0
 9 52 1.0
 10 54 1.0
 11 13 1.5
 12 16 1.0
 13
 14 65 1.0
 15 22 1.0 64 1.0
 16 27 1.0 66 1.0
 17 21 1.5
 18 32 1.5
 19 22 2.0 24 1.5 26 1.0
 20 23 2.0 24 1.5 50 1.0
 21 22 1.5 23 1.5
 22
 23 49 1.0
 24 25 1.5
 25 38 1.5
 26 43 1.0 63 1.0
 27 30 2.0 32 1.5
 28 31 2.0 32 1.5 55 1.0
 29 30 1.5 31 1.5 33 1.5
 30 34 1.0
 31 56 1.0
 32
 33 44 1.5
 34 37 1.0 61 1.0
 35 44 1.5 46 2.0 57 1.0
 36 45 1.5 46 1.5 48 1.5
 37 44 1.5 45 2.0
 38 41 1.5 43 1.5
 39 42 1.5 43 2.0 47 1.0
 40 41 2.0 42 1.5 59 1.0
 41 60 1.0
 42 48 1.5
 43
 44
 45 47 1.0
 46 58 1.0
 47 62 1.0
 48
 49
 50
 51
 52
 53
 54
 55
 56
 57
 58
 59
 60
 61 77 1.0
 62 73 1.0
 63 76 1.0
 64 84 1.0
 65 81 1.0
 66 80 1.0
 67 68 1.0 72 1.0 78 1.0 85 1.0
 68 69 1.0 74 1.0 85 1.0
 69 70 1.5 75 1.0
 70 71 1.5 83 1.0
 71 72 1.5 82 1.0
 72 79 1.0
 73 74 1.5 75 2.0
 74 77 1.5
 75 76 1.5
 76 83 2.0
 77 78 1.5
 78 80 1.5
 79 80 2.0 81 1.5
 80
 81 82 2.0
 82 84 1.5
 83 84 1.5
 84
 85

