%mem=12GB
%nprocshared=32
# opt freq b3lyp/6-31g(d,p) geom=connectivity scf=xqc scrf=(solvent=water)

Title Card Required

0 5
 C                 -1.09450500    4.75879600   -1.47150100
 C                  0.97520600    3.54597800   -1.02239000
 C                  1.01606300    5.97211400   -1.32245600
 C                  5.80268100    2.39698600   -0.62086500
 C                  3.69557200    3.61416800   -0.79584900
 C                  3.68166600    1.18231800   -0.62011000
 C                  5.10979300    1.14595100   -0.57791100
 C                  3.00231200    2.36677600   -0.72771400
 C                  5.12437500    3.58031000   -0.72534100
 C                 -0.33905500    5.97318600   -1.50895700
 C                  1.73235000    4.75702400   -1.08199300
 C                 -0.38183900    3.54794900   -1.20848300
 N                  3.07035300    4.79507000   -0.95130400
 N                  1.59779500    2.30523000   -0.79278100
 N                  2.92175700    0.00044400   -0.58172700
 N                 -1.04617800    2.30857000   -1.15614700
 N                  5.81448500    0.00100500   -0.53347000
 N                 -2.41778000    4.79682700   -1.70985700
 C                  3.00316900   -2.36585000   -0.72766100
 C                  5.12561900   -3.57860200   -0.72537400
 C                  5.11019800   -1.14427400   -0.57790700
 C                  3.68211200   -1.18113600   -0.62003600
 C                  5.80353000   -2.39501100   -0.62093500
 C                  3.69686600   -3.61295600   -0.79578600
 N                  3.07200000   -4.79413900   -0.95115400
 N                  1.59864100   -2.30472000   -0.79277000
 C                 -2.41122200    2.36715200   -1.48809800
 C                 -4.45332200    3.57987000   -2.06347800
 C                 -4.47700200    1.14428400   -1.92716600
 C                 -3.09081600    1.18124000   -1.57992500
 C                 -5.13243300    2.39529800   -2.15374200
 C                 -3.06085000    3.61546700   -1.73811300
 N                 -5.16703300   -0.00089700   -2.07627800
 N                 -2.36776000   -0.00040300   -1.33834300
 C                 -5.13152500   -2.39709700   -2.15375100
 C                 -3.05954300   -3.61655100   -1.73811800
 C                 -3.09037300   -1.18234500   -1.57995000
 C                  1.73406000   -4.75652700   -1.08181000
 C                 -0.38053400   -3.54812700   -1.20851900
 C                 -0.33697500   -5.97343800   -1.50858600
 C                  1.01811100   -5.97190600   -1.32208100
 C                 -1.09285300   -4.75925200   -1.47136700
 C                  0.97647600   -3.54569900   -1.02237000
 C                 -4.47654500   -1.14589400   -1.92718700
 C                 -2.41034200   -2.36804700   -1.48819600
 C                 -4.45199300   -3.58146100   -2.06345800
 N                 -1.04527900   -2.30893100   -1.15632400
 N                 -2.41604000   -4.79775900   -1.70972700
 H                  6.88683200   -2.35703500   -0.58807300
 H                  5.64204200   -4.53072400   -0.77882300
 H                  6.88599500    2.35937700   -0.58793500
 H                  5.64045400    4.53262000   -0.77875800
 H                  1.60042300    6.88459200   -1.36734700
 H                 -0.88815300    6.88644700   -1.71033200
 H                 -4.93668300    4.53192000   -2.25363000
 H                 -6.18319100    2.35755500   -2.41961200
 H                 -6.18230200   -2.35975900   -2.41960400
 H                 -4.93505700   -4.53367400   -2.25354600
 H                 -0.88577200   -6.88691600   -1.70980100
 H                  1.60276100   -6.88420600   -1.36684000
 C                 -1.50140900   -0.00018700   -0.12373400
 C                 -0.68859100   -1.42480800   -0.01112400
 C                  0.94587600   -1.43268000    0.22195200
 C                  1.76109700    0.00032200    0.34707400
 C                  0.94523100    1.43288000    0.22188000
 C                 -0.68901800    1.42455300   -0.01103800
 C                 -1.71636000    0.79776900    3.33190700
 C                 -1.71596600   -0.79799200    3.33182900
 C                 -0.41471200   -1.46513100    3.46223300
 C                  0.77548300   -0.72066500    3.63057700
 C                  0.77532300    0.72160500    3.63066900
 C                 -0.41534900    1.46542000    3.46219500
 C                 -1.20499300   -1.96297800    1.34766600
 C                 -2.19578200   -1.16080300    1.96273100
 C                 -0.21107900   -2.29428300    2.24818100
 C                  1.05187900   -1.98632400    1.67163800
 C                 -2.32277400   -0.00035400    1.19661000
 C                 -2.19626500    1.16004000    1.96296300
 C                 -0.21214000    2.29471900    2.24818900
 C                 -1.20564100    1.96249200    1.34777100
 C                  1.05100700    1.98640400    1.67154500
 C                  1.72824200    1.14384200    2.53657400
 C                  1.72867200   -1.14282700    2.53649200
 C                  2.16880400    0.00035900    1.84989100
 Fe                -2.90430300   -0.00056500    4.67840700

 1 10 1.5 12 1.5 18 1.5
 2 11 1.5 12 2.0 14 1.0
 3 10 2.0 11 1.5 53 1.0
 4 7 1.5 9 2.0 51 1.0
 5 8 1.5 9 1.5 13 1.5
 6 7 1.5 8 2.0 15 1.0
 7 17 1.5
 8 14 1.0
 9 52 1.0
 10 54 1.0
 11 13 1.5
 12 16 1.0
 13
 14 65 1.0
 15 22 1.0 64 1.0
 16 27 1.0 66 1.0
 17 21 1.5
 18 32 1.5
 19 22 2.0 24 1.5 26 1.0
 20 23 2.0 24 1.5 50 1.0
 21 22 1.5 23 1.5
 22
 23 49 1.0
 24 25 1.5
 25 38 1.5
 26 43 1.0 63 1.0
 27 30 2.0 32 1.5
 28 31 2.0 32 1.5 55 1.0
 29 30 1.5 31 1.5 33 1.5
 30 34 1.0
 31 56 1.0
 32
 33 44 1.5
 34 37 1.0 61 1.0
 35 44 1.5 46 2.0 57 1.0
 36 45 1.5 46 1.5 48 1.5
 37 44 1.5 45 2.0
 38 41 1.5 43 1.5
 39 42 1.5 43 2.0 47 1.0
 40 41 2.0 42 1.5 59 1.0
 41 60 1.0
 42 48 1.5
 43
 44
 45 47 1.0
 46 58 1.0
 47 62 1.0
 48
 49
 50
 51
 52
 53
 54
 55
 56
 57
 58
 59
 60
 61 77 1.0
 62 73 1.0
 63 76 1.0
 64 84 1.0
 65 81 1.0
 66 80 1.0
 67 68 1.0 72 1.0 78 1.0 85 1.0
 68 69 1.0 74 1.0 85 1.0
 69 70 1.5 75 1.0
 70 71 1.5 83 1.0
 71 72 1.5 82 1.0
 72 79 1.0
 73 74 1.5 75 2.0
 74 77 1.5
 75 76 1.5
 76 83 2.0
 77 78 1.5
 78 80 1.5
 79 80 2.0 81 1.5
 80
 81 82 2.0
 82 84 1.5
 83 84 1.5
 84
 85

