%mem=12GB
%nprocshared=32
# opt freq b3lyp/6-31g(d,p) geom=connectivity scf=xqc

Title Card Required

0 3
 C                  1.21772500   -4.72373200   -1.49103900
 C                 -0.88263200   -3.55792000   -1.05792000
 C                 -0.86645500   -5.98393100   -1.36433600
 C                 -5.73681700   -2.52651500   -0.64383400
 C                 -3.60139600   -3.69246500   -0.83417400
 C                 -3.64596700   -1.26321500   -0.64076000
 C                 -5.07439300   -1.25959100   -0.59437500
 C                 -2.93757500   -2.42928700   -0.75977600
 C                 -5.03026800   -3.69253600   -0.75914300
 C                  0.48976700   -5.95424000   -1.53977800
 C                 -1.61128700   -4.78619700   -1.12448000
 C                  0.47605700   -3.52926200   -1.23057100
 N                 -2.94831400   -4.85683400   -0.99732400
 N                 -1.53453100   -2.33157200   -0.82902300
 N                 -2.91445100   -0.06396400   -0.59577200
 N                  1.11361100   -2.27644900   -1.16680100
 N                 -5.80510700   -0.13102700   -0.54118900
 N                  2.54391800   -4.73271700   -1.71639100
 C                 -3.04839900    2.29918500   -0.74126700
 C                 -5.19687500    3.46439100   -0.73029000
 C                 -5.12795700    1.03058800   -0.58459100
 C                 -3.70124600    1.10071500   -0.63097700
 C                 -5.84841800    2.26598500   -0.62361700
 C                 -3.76951600    3.53099100   -0.80638000
 N                 -3.17089600    4.72501500   -0.96279300
 N                 -1.64276200    2.26724500   -0.81060200
 C                  2.48328400   -2.30542500   -1.48485200
 C                  4.55637200   -3.47052000   -2.04596000
 C                  4.52441100   -1.03507600   -1.90271400
 C                  3.13704100   -1.10497300   -1.56724900
 C                  5.20972500   -2.27069000   -2.12634600
 C                  3.16192500   -3.53807500   -1.73390200
 N                  5.18876600    0.12637600   -2.04524900
 N                  2.38313100    0.05957100   -1.33267900
 C                  5.09634600    2.52152200   -2.12268600
 C                  2.99115700    3.69025900   -1.72694600
 C                  3.08042100    1.25815100   -1.56680500
 C                 -1.83218300    4.71663700   -1.09475900
 C                  0.30995400    3.55580400   -1.21779600
 C                  0.21159300    5.97995000   -1.51583600
 C                 -1.14382600    5.94763400   -1.33324600
 C                  0.99497300    4.78391200   -1.47582400
 C                 -1.04755300    3.52277700   -1.03669800
 C                  4.47002300    1.25451300   -1.90155800
 C                  2.37089000    2.42625700   -1.48150900
 C                  4.38724300    3.68892400   -2.03948500
 N                  1.00268400    2.33174000   -1.16518400
 N                  2.31874700    4.85474000   -1.70541200
 H                 -6.93054700    2.20474600   -0.58703600
 H                 -5.73465700    4.40476700   -0.78112900
 H                 -6.82062400   -2.51582900   -0.60727100
 H                 -5.52388400   -4.65641200   -0.81730900
 H                 -1.42998800   -6.90905200   -1.41593200
 H                  1.06075300   -6.85433500   -1.73949500
 H                  5.06261300   -4.41083200   -2.23495500
 H                  6.26166400   -2.20899600   -2.38292900
 H                  6.15007700    2.50989100   -2.37906100
 H                  4.84861500    4.65250800   -2.22609000
 H                  0.74013700    6.90584500   -1.71445700
 H                 -1.74878000    6.84654600   -1.37864200
 C                  1.51063900    0.03866400   -0.12759600
 C                  0.66394200    1.44211900   -0.02209900
 C                 -0.97172200    1.41131500    0.20472300
 C                 -1.75276900   -0.04252600    0.32610700
 C                 -0.90658400   -1.45606500    0.19704700
 C                  0.73109900   -1.40406700   -0.02396300
 C                  1.70352200   -0.80049300    3.42416600
 C                  1.72540600    0.79882200    3.41619800
 C                  0.40457600    1.46382500    3.47821400
 C                 -0.79635000    0.75427800    3.65633800
 C                 -0.81133200   -0.70041400    3.66011900
 C                  0.36959600   -1.43516800    3.49275500
 C                  1.17403100    1.98652900    1.34154500
 C                  2.15601500    1.14565500    1.98171600
 C                  0.20115000    2.26730600    2.23895300
 C                 -1.08886400    1.96796500    1.65319100
 C                  2.32428000    0.04970200    1.20421000
 C                  2.13174100   -1.14303000    1.99186100
 C                  0.17504000   -2.24694400    2.24310000
 C                  1.24398300   -1.93335800    1.34047400
 C                 -1.02372400   -2.02037800    1.64687600
 C                 -1.73319000   -1.12565600    2.52923600
 C                 -1.71610600    1.14602000    2.52667800
 C                 -2.14946400   -0.04524300    1.83212800
 Ni                 2.78979600    0.00099500    4.74077900

 1 10 1.5 12 1.5 18 1.5
 2 11 1.5 12 2.0 14 1.0
 3 10 2.0 11 1.5 53 1.0
 4 7 1.5 9 2.0 51 1.0
 5 8 1.5 9 1.5 13 1.5
 6 7 1.5 8 2.0 15 1.0
 7 17 1.5
 8 14 1.0
 9 52 1.0
 10 54 1.0
 11 13 1.5
 12 16 1.0
 13
 14 65 1.0
 15 22 1.0 64 1.0
 16 27 1.0 66 1.0
 17 21 1.5
 18 32 1.5
 19 22 2.0 24 1.5 26 1.0
 20 23 2.0 24 1.5 50 1.0
 21 22 1.5 23 1.5
 22
 23 49 1.0
 24 25 1.5
 25 38 1.5
 26 43 1.0 63 1.0
 27 30 2.0 32 1.5
 28 31 2.0 32 1.5 55 1.0
 29 30 1.5 31 1.5 33 1.5
 30 34 1.0
 31 56 1.0
 32
 33 44 1.5
 34 37 1.0 61 1.0
 35 44 1.5 46 2.0 57 1.0
 36 45 1.5 46 1.5 48 1.5
 37 44 1.5 45 2.0
 38 41 1.5 43 1.5
 39 42 1.5 43 2.0 47 1.0
 40 41 2.0 42 1.5 59 1.0
 41 60 1.0
 42 48 1.5
 43
 44
 45 47 1.0
 46 58 1.0
 47 62 1.0
 48
 49
 50
 51
 52
 53
 54
 55
 56
 57
 58
 59
 60
 61 77 1.0
 62 73 1.0
 63 76 1.0
 64 84 1.0
 65 81 1.0
 66 80 1.0
 67 68 1.0 72 1.0 78 1.0 85 1.0
 68 69 1.0 74 1.0 85 1.0
 69 70 1.5 75 1.0
 70 71 1.0 83 1.0
 71 72 1.5 82 1.0
 72 79 1.0
 73 74 1.5 75 2.0
 74 77 2.0
 75 76 1.0
 76 83 2.0
 77 78 1.5
 78 80 2.0
 79 80 1.5 81 2.0
 80
 81 82 1.5
 82 84 2.0
 83 84 1.5
 84
 85

