%mem=12GB
%nprocshared=32
# opt freq ub3lyp/6-31g(d,p) geom=connectivity scf=xqc scrf=(solvent=water)

Title Card Required

0 3
 C                 -1.00519200    4.76226200   -1.55265200
 C                  1.04468600    3.54751700   -1.02951200
 C                  1.09969500    5.97349900   -1.32286800
 C                  5.85382700    2.38678000   -0.47280800
 C                  3.75637700    3.60965200   -0.71219200
 C                  3.73186100    1.17678500   -0.54610500
 C                  5.15788900    1.13705800   -0.45612900
 C                  3.05912000    2.36277100   -0.67062000
 C                  5.18177900    3.57212000   -0.59542200
 C                 -0.24782800    5.97588500   -1.55894500
 C                  1.80571600    4.75733600   -1.05973000
 C                 -0.30373700    3.55000400   -1.26661300
 N                  3.13844500    4.79200000   -0.88325500
 N                  1.65672500    2.30482100   -0.77971100
 N                  2.96746800   -0.00447100   -0.53620100
 N                 -0.96826600    2.30900900   -1.24286500
 N                  5.85832500   -0.00926000   -0.38944200
 N                 -2.31865900    4.80181300   -1.83904900
 C                  3.05130700   -2.37191400   -0.67201200
 C                  5.16996500   -3.58827500   -0.59749000
 C                  5.15412500   -1.15323200   -0.45680500
 C                  3.72797500   -1.18823300   -0.54681100
 C                  5.84593200   -2.40523400   -0.47419000
 C                  3.74444900   -3.62105700   -0.71429800
 N                  3.12264100   -4.80127900   -0.88604800
 N                  1.64907600   -2.30927300   -0.78106000
 C                 -2.32302800    2.37189400   -1.61881800
 C                 -4.34184600    3.58849200   -2.26490600
 C                 -4.37428700    1.15313400   -2.13017100
 C                 -3.00143000    1.18803100   -1.73325600
 C                 -5.01929400    2.40520600   -2.37958800
 C                 -2.96157300    3.62160400   -1.89099000
 N                 -5.06019600    0.00926000   -2.30421000
 N                 -2.28888400    0.00444300   -1.46587200
 C                 -5.02722000   -2.38676800   -2.38079200
 C                 -2.97351900   -3.61023600   -1.89291200
 C                 -3.00532300   -1.17663400   -1.73389900
 C                  1.79004600   -4.76212800   -1.06253300
 C                 -0.31542000   -3.54774500   -1.26868800
 C                 -0.26752300   -5.97362800   -1.56235200
 C                  1.08000800   -5.97581500   -1.32631700
 C                 -1.02089400   -4.75752200   -1.55533900
 C                  1.03300100   -3.54982800   -1.03163100
 C                 -4.37807400   -1.13696800   -2.13076000
 C                 -2.33084100   -2.36279000   -1.62007400
 C                 -4.35368900   -3.57235100   -2.26676200
 N                 -0.97587400   -2.30459000   -1.24404000
 N                 -2.33450600   -4.79258800   -1.84165300
 H                  6.92759300   -2.36906400   -0.40553100
 H                  5.68664500   -4.54112600   -0.63125100
 H                  6.93536400    2.34698500   -0.40419200
 H                  5.70158500    4.52328700   -0.62866400
 H                  1.68570500    6.88572100   -1.34454000
 H                 -0.78846600    6.89012300   -1.77783800
 H                 -4.81677800    4.54141100   -2.47096200
 H                 -6.06016100    2.36933400   -2.68188000
 H                 -6.06797300   -2.34731600   -2.68303300
 H                 -4.83178300   -4.52357900   -2.47332300
 H                 -0.81116800   -6.88596800   -1.78171400
 H                  1.66300200   -6.88995600   -1.34848700
 C                 -1.47250900    0.00268800   -0.22195300
 C                 -0.66500100   -1.43154100   -0.08050400
 C                  0.96586400   -1.43654400    0.20820600
 C                  1.78037600   -0.00282500    0.35369500
 C                  0.97056100    1.43361600    0.20887700
 C                 -0.66045900    1.43413900   -0.07985800
 C                 -1.77594500    0.76864300    3.21792200
 C                 -1.77894000   -0.76435600    3.21798900
 C                 -0.49896800   -1.43970100    3.39813800
 C                  0.69976800   -0.71634900    3.62018000
 C                  0.70204300    0.71253700    3.62049700
 C                 -0.49437400    1.44002000    3.39905600
 C                 -1.23061100   -1.98231300    1.26061400
 C                 -2.19859900   -1.13840100    1.85689100
 C                 -0.25814000   -2.27055100    2.20376900
 C                  1.03162400   -1.98896800    1.66413400
 C                 -2.33855000    0.00369200    1.06745800
 C                 -2.19477000    1.14480700    1.85768000
 C                 -0.25085300    2.27075100    2.20492000
 C                 -1.22403900    1.98608700    1.26169300
 C                  1.03802700    1.98482700    1.66513900
 C                  1.68761900    1.13808300    2.54520300
 C                  1.68375800   -1.14443100    2.54455200
 C                  2.14301100   -0.00385500    1.86951400
 Zn                -3.15117400    0.00008600    4.67107800

 1 10 1.5 12 1.5 18 1.5
 2 11 1.5 12 2.0 14 1.0
 3 10 2.0 11 1.5 53 1.0
 4 7 1.5 9 2.0 51 1.0
 5 8 1.5 9 1.5 13 1.5
 6 7 1.5 8 2.0 15 1.0
 7 17 1.5
 8 14 1.0
 9 52 1.0
 10 54 1.0
 11 13 1.5
 12 16 1.0
 13
 14 65 1.0
 15 22 1.0 64 1.0
 16 27 1.0 66 1.0
 17 21 1.5
 18 32 1.5
 19 22 2.0 24 1.5 26 1.0
 20 23 2.0 24 1.5 50 1.0
 21 22 1.5 23 1.5
 22
 23 49 1.0
 24 25 1.5
 25 38 1.5
 26 43 1.0 63 1.0
 27 30 2.0 32 1.5
 28 31 2.0 32 1.5 55 1.0
 29 30 1.5 31 1.5 33 1.5
 30 34 1.0
 31 56 1.0
 32
 33 44 1.5
 34 37 1.0 61 1.0
 35 44 1.5 46 2.0 57 1.0
 36 45 1.5 46 1.5 48 1.5
 37 44 1.5 45 2.0
 38 41 1.5 43 1.5
 39 42 1.5 43 2.0 47 1.0
 40 41 2.0 42 1.5 59 1.0
 41 60 1.0
 42 48 1.5
 43
 44
 45 47 1.0
 46 58 1.0
 47 62 1.0
 48
 49
 50
 51
 52
 53
 54
 55
 56
 57
 58
 59
 60
 61 77 1.0
 62 73 1.0
 63 76 1.0
 64 84 1.0
 65 81 1.0
 66 80 1.0
 67 68 1.0 72 1.0 78 1.0
 68 69 1.0 74 1.0 85 1.0
 69 70 1.5 75 1.0
 70 71 1.5 83 1.0
 71 72 1.5 82 1.0
 72 79 1.0
 73 74 1.5 75 2.0
 74 77 1.5
 75 76 1.5
 76 83 2.0
 77 78 1.5
 78 80 1.5
 79 80 2.0 81 1.5
 80
 81 82 2.0
 82 84 1.5
 83 84 1.5
 84
 85

